lattice_vector 5.37812703695 0.0 0.0
lattice_vector 0.188440451157 6.90174624186 0.0
lattice_vector 0.810730735424 0.10744888846 13.4620199187
atom 3.59001 8.46383 10.93704 O
atom 2.88628 7.27022 10.81824 C
atom 1.95077 7.33469 10.27708 H
atom 3.59025 6.30626 11.46920 C
atom 3.96071 4.92455 11.98639 C
atom 4.16592 4.18849 11.19923 H
atom 3.26948 4.48992 12.72000 H
atom 5.25561 5.59653 12.60787 C
atom 6.20707 5.22731 12.20493 H
atom 5.28775 5.58566 13.70442 H
atom 4.76368 6.90554 12.00671 C
atom 4.74804 8.22154 11.66741 C
atom 5.39765 9.08041 11.78740 H
atom 2.74159 -1.45464 2.52381 O
atom 3.44532 -0.26103 2.64261 C
atom 4.38082 -0.32550 3.18376 H
atom 2.74135 0.70293 1.99164 C
atom 2.37089 2.08463 1.47445 C
atom 2.16567 2.82069 2.26162 H
atom 3.06212 2.51927 0.74084 H
atom 1.07598 1.41265 0.85298 C
atom 0.12452 1.78187 1.25591 H
atom 1.04384 1.42353 -0.24358 H
atom 1.56791 0.10365 1.45413 C
atom 1.58355 -1.21235 1.79343 C
atom 0.93395 -2.07122 1.67344 H
atom 6.01077 4.99953 9.25482 O
atom 6.64937 3.80781 9.37362 C
atom 7.58864 3.88092 9.91477 H
atom 5.89248 2.83346 8.72265 C
atom 5.44635 1.44350 8.20546 C
atom 5.20128 0.72001 8.99263 H
atom 6.11352 0.99716 7.47185 H
atom 4.18787 2.10556 7.58399 C
atom 3.21642 1.74278 7.98692 H
atom 4.15465 2.07718 6.48743 H
atom 4.75154 3.42416 8.18514 C
atom 4.83919 4.74558 8.52444 C
atom 4.23643 5.60253 8.40445 H
atom 0.32082 2.00965 4.20603 O
atom -0.31778 3.20137 4.08723 C
atom -1.25704 3.12826 3.54607 H
atom 0.43911 4.17572 4.73819 C
atom 0.88525 5.56568 5.25538 C
atom 1.13031 6.28918 4.46822 H
atom 0.21807 6.01203 5.98899 H
atom 2.14373 4.90363 5.87686 C
atom 3.11518 5.26641 5.47392 H
atom 2.17694 4.93201 6.97341 H
atom 1.58006 3.58502 5.27570 C
atom 1.49241 2.26361 4.93640 C
atom 2.09517 1.40665 5.05639 H
