lattice_vector 5.49005851063 0.0 0.0
lattice_vector 0.00217313102257 8.32534930386 0.0
lattice_vector 0.86858992527 0.0154243108665 10.5360632996
atom 5.88059 1.16266 1.68619 O
atom 5.08727 1.24906 0.55012 C
atom 5.33394 2.06322 -0.12234 H
atom 4.17378 0.24063 0.60078 C
atom 3.01336 -0.65315 0.17863 C
atom 3.17079 -1.23836 -0.73704 H
atom 2.03994 -0.15133 0.11597 H
atom 3.25658 -1.46180 1.52015 C
atom 3.55631 -2.50960 1.38993 H
atom 2.41974 -1.42621 2.22873 H
atom 4.39906 -0.49266 1.80033 C
atom 5.44673 0.08628 2.44778 C
atom 5.98994 -0.06632 3.37162 H
atom 0.50393 5.34940 8.79256 O
atom 1.30095 5.43996 9.92581 C
atom 1.05639 6.25675 10.59585 H
atom 2.21548 4.43255 9.87471 C
atom 3.37493 3.53761 10.29809 C
atom 3.21659 2.95542 11.21551 H
atom 4.34957 4.03731 10.35828 H
atom 3.12773 2.72509 8.95948 C
atom 2.82628 1.67833 9.09376 H
atom 3.96337 2.75643 8.24920 H
atom 1.98658 3.69514 8.67848 C
atom 0.93569 4.27071 8.03320 C
atom 0.38918 4.11396 7.11209 H
atom 0.25805 1.18224 6.96406 O
atom 1.05082 1.26541 5.82726 C
atom 0.80361 2.07731 5.15248 H
atom 1.96628 0.25911 5.88193 C
atom 3.12739 -0.63508 5.46232 C
atom 2.97063 -1.22249 4.54813 H
atom 4.09994 -0.13202 5.39914 H
atom 2.88477 -1.43992 6.80628 C
atom 2.58448 -2.48789 6.67869 H
atom 3.72196 -1.40342 7.51434 H
atom 1.74253 -0.47009 7.08433 C
atom 0.69389 0.10967 7.72957 C
atom 0.15144 -0.04181 8.65389 H
atom 6.15153 5.33938 3.51709 O
atom 5.35863 5.42199 4.65372 C
atom 5.60780 6.23177 5.33066 H
atom 4.44130 4.41739 4.59704 C
atom 3.28101 3.52199 5.01655 C
atom 3.44060 2.93192 5.92874 H
atom 2.30793 4.02372 5.08379 H
atom 3.52163 2.72019 3.67034 C
atom 3.82094 1.67159 3.79466 H
atom 2.68364 2.76022 2.96351 H
atom 4.66420 3.69002 3.39354 C
atom 5.71426 4.26834 2.74960 C
atom 6.25623 4.11816 1.82471 H
