lattice_vector 8.27322307076 0 0
lattice_vector -0.0659022362899 10.7195857455 0
lattice_vector -3.8149691253 -0.0707795335833 11.4952627721
atom 2.40007 8.76546 2.18847 S
atom 1.67973 7.50299 -0.24424 C
atom 3.38669 6.17147 1.45533 C
atom 2.78559 6.12989 -0.21272 S
atom 3.20181 7.21325 2.40912 C
atom 1.51519 8.50472 0.67900 C
atom 0.53990 9.50776 0.45821 C
atom 0.86998 7.45672 -1.41034 C
atom -0.25185 10.34715 0.26735 N
atom 0.23512 7.35326 -2.38846 N
atom 3.81570 6.87002 3.60706 C
atom 3.81280 7.60744 4.80485 C
atom 3.79055 8.23055 5.79457 N
atom 4.07729 5.12045 1.84609 N
atom 4.59300 5.31740 3.41731 S
atom 6.55812 1.97679 2.18649 S
atom 5.84594 3.26658 -0.23470 C
atom 7.54956 4.57663 1.48351 C
atom 6.95195 4.63833 -0.18490 S
atom 7.36176 3.52475 2.42564 C
atom 5.67836 2.25515 0.67745 C
atom 4.70296 1.25506 0.44374 C
atom 5.03967 3.32587 -1.40252 C
atom 3.91298 0.41613 0.24342 N
atom 4.40815 3.43968 -2.38162 N
atom 7.97558 3.85337 3.62745 C
atom 7.97594 3.10164 4.81631 C
atom 7.95860 2.46825 5.79958 N
atom 8.24155 5.62207 1.88659 N
atom 8.75655 5.40590 3.45544 S
atom 4.66329 3.37034 7.93654 S
atom 3.94127 2.10676 5.50493 C
atom 5.64981 0.77630 7.20404 C
atom 5.04689 0.73355 5.53644 S
atom 5.46525 1.81842 8.15749 C
atom 3.77734 3.10894 6.42785 C
atom 2.80198 4.11191 6.20690 C
atom 3.13086 2.06002 4.33934 C
atom 2.00916 4.95041 6.01657 N
atom 2.49492 1.95632 3.36192 N
atom 6.08020 1.47591 9.35510 C
atom 6.07783 2.21442 10.55231 C
atom 6.05456 2.83412 11.54416 N
atom 6.34132 -0.27405 7.59463 N
atom 6.85833 -0.07618 9.16540 S
atom 0.48129 7.30137 7.93195 S
atom -0.23266 8.59627 5.51389 C
atom 1.47450 9.90143 7.23261 C
atom 0.87621 9.96599 5.56430 S
atom 1.28656 8.84857 8.17344 C
atom -0.40014 7.58346 6.42447 C
atom -1.37688 6.58464 6.19039 C
atom -1.04132 8.65948 4.34784 C
atom -2.16693 5.74547 5.99141 N
atom -1.67375 8.77565 3.36957 N
atom 1.90165 9.17494 9.37536 C
atom 1.90252 8.42184 10.56337 C
atom 1.88724 7.78859 11.54677 N
atom 2.16765 10.94580 7.63662 N
atom 2.68389 10.72702 9.20473 S
