lattice_vector 6.98495178149 0 0
lattice_vector -0.007762524692 10.765588782 0
lattice_vector -0.0038500205717 -1.69984058761 13.8026043746
atom 5.09964 4.41287 0.54611 S
atom 5.65507 6.14158 2.73012 C
atom 5.72610 3.42405 3.15791 C
atom 5.59529 4.95926 4.04236 S
atom 5.53516 3.21650 1.76834 C
atom 5.44007 5.93147 1.39205 C
atom 5.41643 7.03656 0.50275 C
atom 5.94435 7.45014 3.19287 C
atom 5.34178 7.91195 -0.27022 N
atom 6.19293 8.52214 3.58816 N
atom 5.72327 1.87079 1.46881 C
atom 5.64748 1.26569 0.19896 C
atom 5.59547 0.78992 -0.86773 N
atom 6.02736 2.36562 3.89054 N
atom 6.08486 1.00281 2.93502 S
atom 1.60405 5.50273 6.35492 S
atom 2.16377 3.77431 4.17155 C
atom 2.23085 6.49201 3.74360 C
atom 2.10276 4.95652 2.85912 S
atom 2.03822 6.69955 5.13302 C
atom 1.94736 3.98442 5.50933 C
atom 1.92432 2.87976 6.39917 C
atom 2.45528 2.46621 3.70904 C
atom 1.84981 2.00434 7.17212 N
atom 2.70698 1.39471 3.31429 N
atom 2.22418 8.04560 5.43222 C
atom 2.14586 8.65035 6.70209 C
atom 2.09273 9.12706 7.76825 N
atom 2.53126 7.55077 3.01108 N
atom 2.58553 8.91378 3.96638 S
atom 1.87409 4.65288 13.25643 S
atom 1.31832 2.92415 11.07250 C
atom 1.24735 5.64168 10.64468 C
atom 1.37800 4.10645 9.76023 S
atom 1.43847 5.84924 12.03423 C
atom 1.53352 3.13427 12.41054 C
atom 1.55729 2.02919 13.29984 C
atom 1.02892 1.61559 10.60980 C
atom 1.63207 1.15380 14.07281 N
atom 0.78024 0.54360 10.21457 N
atom 1.25046 7.19496 12.33375 C
atom 1.32647 7.80008 13.60358 C
atom 1.37865 8.27587 14.67026 N
atom 0.94602 6.70010 9.91208 N
atom 0.88867 8.06293 10.86759 S
atom 5.36886 3.56303 7.44762 S
atom 4.80951 5.29144 9.63108 C
atom 4.74240 2.57373 10.05901 C
atom 4.87065 4.10921 10.94348 S
atom 4.93482 2.36620 8.66956 C
atom 5.02571 5.08133 8.29327 C
atom 5.04861 6.18600 7.40343 C
atom 4.51815 6.59954 10.09365 C
atom 5.12301 7.06142 6.63046 N
atom 4.26658 7.67106 10.48845 N
atom 4.74878 1.02016 8.37036 C
atom 4.82685 0.41542 7.10048 C
atom 4.87978 -0.06127 6.03430 N
atom 4.44208 1.51496 10.79156 N
atom 4.38765 0.15197 9.83625 S
