lattice_vector      5.6782845874      0.0000000000      0.0000000000
lattice_vector     -0.4235629179      5.6194227611      0.0000000000
lattice_vector     -0.9421659430      2.1354851999      4.8576121595
atom     -0.3223043720      0.2586382611      0.4105479153 C
atom     -0.1064091128     -0.0228290672     -1.0482065423 C
atom     -0.9825428842     -0.5199263763     -1.4511079402 H
atom      0.0654334620      0.9170756436     -1.5553951557 H
atom      1.0630284104     -0.8789181532     -1.2259092234 N
atom      1.8373275441     -0.5229322249     -0.6809657688 H
atom      0.8543949223     -1.8204808059     -0.9170556595 H
atom      1.3341667298     -0.9036744016     -2.2006052678 H
atom     -1.4794041955      0.4769650820      0.8235873521 O
atom      0.6764907141      0.2933525419      1.1526478006 O
atom      1.6179884593      4.0433214988      2.2802936793 C
atom      2.5937510194      3.7207722073      3.3746649913 C
atom      2.1989372075      2.9118661642      3.9803371170 H
atom      2.7402398401      4.6092341494      3.9741376165 H
atom      3.8749484464      3.3182690631      2.8014501462 N
atom      4.1521688048      3.9731944478      2.0821100933 H
atom      3.7967478464      2.3967792521      2.3888972650 H
atom      4.5890099084      3.2994994661      3.5183358899 H
atom      0.3980560969      3.8781632674      2.4843426152 O
atom      2.0677929122      4.4964357141      1.2117093788 O
