lattice_vector      5.0858973512      0.0000000000      0.0000000000
lattice_vector      0.0000000000      5.3137430205      0.0000000000
lattice_vector      0.0000000000      0.0000000000      5.7353979938
atom     -0.0611585188     -0.5783965775      1.4206028024 C
atom      0.6108667155      0.5958563463      0.7699789919 C
atom      1.6850040049      0.5093370103      0.8956338556 H
atom      0.3491237285      0.6004671539     -0.2796211103 H
atom      0.1486423791      1.8393519584      1.3799939198 N
atom     -0.8605128522      1.8354110611      1.4494106826 H
atom      0.5376767319      1.9356289008      2.3099625796 H
atom      0.4339960464      2.6319000544      0.8190999557 H
atom      0.5336556811     -1.6746237581      1.4609787196 O
atom     -1.2100793891     -0.4174505434      1.8718080254 O
atom      2.4817901568      3.2352680878      4.3147951914 C
atom      3.1538153911      2.0610151639      4.9654190019 C
atom      4.2279526805      2.1475345000      4.8397641382 H
atom      2.8920724041      2.0564043564      6.0150191041 H
atom      2.6915910547      0.8175195519      4.3554040740 N
atom      1.6824358234      0.8214604492      4.2859873113 H
atom      3.0806254075      0.7212426095      3.4254354142 H
atom      2.9769447220      0.0249714559      4.9162980381 H
atom      3.0766043567      4.3314952683      4.2744192742 O
atom      1.3328692866      3.0743220537      3.8635899684 O
