lattice_vector      5.3494526310      0.0000000000      0.0000000000
lattice_vector      0.0000000000      5.8120572223      0.0000000000
lattice_vector      0.0000000000      0.0000000000      4.9853134596
atom      2.2684876771      0.2434379541      2.8318197883 C
atom      2.8115315065      0.0322814201      1.4482318782 C
atom      2.0480458278     -0.4274364680      0.8295277984 H
atom      3.1012072603      0.9933266652      1.0449069226 H
atom      3.9850128784     -0.8352397499      1.4972153057 N
atom      4.6158831662     -0.5217358732      2.2231261114 H
atom      3.7050275890     -1.7872103324      1.6992522654 H
atom      4.4724039674     -0.8156066978      0.6105216108 H
atom      1.0489140256      0.4619741946      2.9802455229 O
atom      3.0705544339      0.2219874750      3.7835223363 O
atom      0.4062386384      2.6625906570      2.8318197883 C
atom     -0.1368051910      2.8737471911      1.4482318782 C
atom      0.6266804877      3.3334650792      0.8295277984 H
atom     -0.4264809448      1.9127019459      1.0449069226 H
atom     -1.3102865629      3.7412683610      1.4972153057 N
atom     -1.9411568506      3.4277644844      2.2231261114 H
atom     -1.0303012735      4.6932389436      1.6992522654 H
atom     -1.7976776519      3.7216353089      0.6105216108 H
atom      1.6258122899      2.4440544165      2.9802455229 O
atom     -0.3958281184      2.6840411362      3.7835223363 O
