lattice_vector      5.7922319713      0.0000000000      0.0000000000
lattice_vector      0.0000000000      5.4240739418      0.0000000000
lattice_vector      0.7704047330      0.0000000000      4.9335570027
atom      0.2727098845      2.1513623279      2.5777417176 C
atom      0.8880621753      3.1685706880      1.6609931709 C
atom      0.4364003589      3.0853462536      0.6780786508 H
atom      1.9521829837      2.9812689205      1.6084957583 H
atom      0.6680519002      4.5136644972      2.1847956241 N
atom      0.9015521927      4.5433776110      3.1685757025 H
atom     -0.3039830063      4.7749738696      2.0737810401 H
atom      1.2476278054      5.1807696673      1.6916184743 H
atom     -0.1318426027      1.0703553003      2.1034957162 O
atom      0.2177429674      2.4175532836      3.7924968198 O
atom      3.1688258701     -0.5606746430      2.5777417176 C
atom      3.7841781609      0.4565337171      1.6609931709 C
atom      3.3325163446      0.3733092827      0.6780786508 H
atom      4.8482989694      0.2692319496      1.6084957583 H
atom      3.5641678858      1.8016275264      2.1847956241 N
atom      3.7976681783      1.8313406401      3.1685757025 H
atom      2.5921329793      2.0629368987      2.0737810401 H
atom      4.1437437910      2.4687326964      1.6916184743 H
atom      2.7642733829     -1.6416816706      2.1034957162 O
atom      3.1138589530     -0.2944836873      3.7924968198 O
