lattice_vector 5.37356667088 0 0
lattice_vector -0.0202752546269 9.31603414221 0
lattice_vector -0.092039775447 -0.0668501015181 9.89240164148
atom -0.19045 3.95965 1.39947 O
atom 0.23315 3.13382 0.36800 C
atom -0.26882 3.28612 -0.57964 H
atom 1.23402 2.34700 0.84716 C
atom 2.34986 1.31248 0.84829 C
atom 3.19540 1.54408 0.18815 H
atom 2.04139 0.27229 0.68941 H
atom 2.58728 1.68633 2.36778 C
atom 3.57091 2.13004 2.56796 H
atom 2.39870 0.86414 3.07018 H
atom 1.44556 2.68718 2.21305 C
atom 0.56475 3.67476 2.52938 C
atom 0.33478 4.29080 3.39001 H
atom 5.45388 5.26428 7.54803 O
atom 4.70776 5.55809 6.41455 C
atom 4.94599 4.95058 5.54999 H
atom 3.82409 6.54290 6.73169 C
atom 2.68248 7.54376 6.57618 C
atom 1.70086 7.10092 6.36384 H
atom 2.87616 8.37235 5.88260 H
atom 2.90656 7.90458 8.10080 C
atom 2.05544 7.66530 8.75118 H
atom 3.21196 8.94383 8.27229 H
atom 4.02386 6.87140 8.10232 C
atom 5.02112 6.08080 8.58315 C
atom 5.51689 5.92252 9.53308 H
atom 5.49618 8.61032 2.60478 O
atom 4.73268 8.33507 1.47832 C
atom 4.95705 8.95802 0.62100 H
atom 3.85698 7.34184 1.79170 C
atom 2.71749 6.33860 1.63573 C
atom 1.73126 6.78084 1.44583 H
atom 2.90381 5.52336 0.92447 H
atom 2.96687 5.95181 3.15021 C
atom 2.12535 6.17563 3.81796 H
atom 3.27857 4.91114 3.29874 H
atom 4.07986 6.98917 3.15275 C
atom 5.08296 7.77345 3.63149 C
atom 5.59091 7.91906 4.57700 H
atom -0.23300 0.61871 6.33563 O
atom 0.18312 1.45791 5.31182 C
atom -0.32463 1.31632 4.36539 H
atom 1.18608 2.23980 5.79443 C
atom 2.30117 3.27490 5.80079 C
atom 3.14376 3.04983 5.13477 H
atom 1.99249 4.31654 5.65293 H
atom 2.54638 2.88529 7.31515 C
atom 3.53198 2.44250 7.50728 H
atom 2.35821 3.69966 8.02702 H
atom 1.40628 1.88326 7.15491 C
atom 0.52913 0.88996 7.46413 C
atom 0.30326 0.26413 8.31901 H
