lattice_vector 7.56231791353 0 0
lattice_vector -0.305288136098 10.0515581913 0
lattice_vector -0.762080948716 -0.157621946047 13.2390736302
atom 2.16888 9.30004 10.44992 S
atom 1.00633 10.59150 12.69131 C
atom 1.17504 7.84509 12.73024 C
atom 0.67268 9.21569 13.74627 S
atom 1.78280 7.89412 11.44198 C
atom 1.57045 10.62765 11.44164 C
atom 1.76969 11.88454 10.81200 C
atom 0.67633 11.81872 13.31676 C
atom 1.94789 12.91820 10.29441 N
atom 0.43181 12.82027 13.86919 N
atom 2.05067 6.59894 11.00953 C
atom 2.64855 6.20696 9.79792 C
atom 3.13861 5.88902 8.78581 N
atom 0.97075 6.65295 13.24999 N
atom 1.52646 5.46244 12.22783 S
atom 6.51485 3.14081 2.88453 S
atom 5.85656 0.93375 1.22483 C
atom 5.91372 3.44292 0.09140 C
atom 5.76781 1.72832 -0.34958 S
atom 6.28130 3.98306 1.35508 C
atom 6.18484 1.46127 2.45019 C
atom 6.27137 0.62498 3.59373 C
atom 5.56471 -0.44852 1.09866 C
atom 6.36767 -0.01244 4.57009 N
atom 5.29454 -1.57238 0.92522 N
atom 6.39575 5.36238 1.26282 C
atom 6.79558 6.25354 2.27504 C
atom 7.16339 6.97576 3.11880 N
atom 5.73568 4.30059 -0.89460 N
atom 5.99509 5.85504 -0.36099 S
atom 2.62450 1.67709 3.69188 S
atom 1.79410 0.31543 6.03533 C
atom 1.50708 3.05450 5.96077 C
atom 1.13603 1.64868 6.98113 S
atom 2.11211 3.05592 4.67342 C
atom 2.38091 0.31813 4.79735 C
atom 2.84394 -0.90629 4.25132 C
atom 1.65767 -0.90978 6.73496 C
atom 3.22220 -1.91897 3.80411 N
atom 1.51778 -1.89243 7.35230 N
atom 2.26960 4.36688 4.23660 C
atom 2.89374 4.78986 3.05033 C
atom 3.43184 5.10385 2.06238 N
atom 1.20650 4.22891 6.48253 N
atom 1.64702 5.45643 5.44547 S
atom 6.69236 5.86874 9.24891 S
atom 5.51884 7.93012 7.74099 C
atom 5.51078 5.40663 6.71297 C
atom 5.57060 7.10070 6.17698 S
atom 5.93108 4.92187 7.98128 C
atom 5.97520 7.45868 8.94585 C
atom 5.90103 8.24657 10.12075 C
atom 4.94231 9.22337 7.67474 C
atom 5.87100 8.85295 11.12143 N
atom 4.46483 10.28899 7.61469 N
atom 5.72673 3.55340 8.06710 C
atom 6.06471 2.71610 9.14568 C
atom 6.40152 2.03489 10.03459 N
atom 5.04247 4.51573 5.86301 N
atom 5.06976 2.99224 6.54501 S
