lattice_vector 6.96005861284 0 0
lattice_vector 0.0654141735132 9.88807810213 0
lattice_vector 2.00665681085 0.142924712742 14.2652119994
atom 0.02221 0.66199 9.71158 S
atom 2.34930 1.97574 8.74368 C
atom 2.20108 -0.75421 8.46023 C
atom 3.35525 0.58722 8.33611 S
atom 0.89964 -0.70857 9.03337 C
atom 1.07320 2.00861 9.25323 C
atom 0.48544 3.28570 9.45603 C
atom 3.03116 3.19589 8.48921 C
atom 0.06328 4.36714 9.59630 N
atom 3.61299 4.19122 8.29013 N
atom 0.35931 -1.99209 9.05207 C
atom -0.89630 -2.35197 9.57521 C
atom -1.93565 -2.59811 10.04954 N
atom 2.63814 -1.92783 8.04396 N
atom 1.51726 -3.11593 8.37606 S
atom 9.99506 5.62669 11.68908 S
atom 7.68754 6.97033 12.66304 C
atom 7.79718 4.23793 12.93763 C
atom 6.66229 5.59500 13.06652 S
atom 9.09976 4.26688 12.36574 C
atom 8.96389 6.98702 12.15308 C
atom 9.56811 8.25639 11.95040 C
atom 7.02094 8.19857 12.91895 C
atom 10.00478 9.33203 11.80987 N
atom 6.45179 9.20107 13.11838 N
atom 9.62306 2.97645 12.34632 C
atom 10.87547 2.60078 11.82631 C
atom 11.91440 2.34314 11.35736 N
atom 7.34355 3.06976 13.35097 N
atom 8.44903 1.86718 13.01901 S
atom 9.00986 9.36894 4.55356 S
atom 6.68280 8.05527 5.52161 C
atom 6.83105 10.78523 5.80492 C
atom 5.67691 9.44382 5.92927 S
atom 8.13250 10.73954 5.23177 C
atom 7.95884 8.02236 5.01195 C
atom 8.54652 6.74527 4.80901 C
atom 6.00091 6.83513 5.77610 C
atom 8.96875 5.66385 4.66879 N
atom 5.41916 5.83973 5.97501 N
atom 8.67288 12.02304 5.21306 C
atom 9.92857 12.38289 4.69011 C
atom 10.96797 12.62917 4.21598 N
atom 6.39404 11.95887 6.22118 N
atom 7.51497 13.14692 5.88906 S
atom -0.96293 4.40434 2.57612 S
atom 1.34457 3.06068 1.60215 C
atom 1.23491 5.79309 1.32753 C
atom 2.36990 4.43605 1.19899 S
atom -0.06766 5.76414 1.89944 C
atom 0.06818 3.04399 2.11203 C
atom -0.53606 1.77463 2.31466 C
atom 2.01122 1.83246 1.34629 C
atom -0.97265 0.69897 2.45536 N
atom 2.58047 0.82995 1.14714 N
atom -0.59097 7.05457 1.91884 C
atom -1.84334 7.43024 2.43890 C
atom -2.88225 7.68788 2.90792 N
atom 1.68852 6.96124 0.91412 N
atom 0.58305 8.16382 1.24609 S
