lattice_vector 6.74131089097 0 0
lattice_vector 3.61184660685e-05 7.10587058995 0
lattice_vector 0.00142071829172 5.45281646473e-05 10.8252412278
atom 4.88790 1.50351 8.11716 O
atom 4.07993 1.83254 9.19492 C
atom 4.61252 2.13227 10.08853 H
atom 2.78532 1.70670 8.80033 C
atom 1.26520 1.72874 8.88109 C
atom 0.81892 2.71714 9.05173 H
atom 0.81671 1.00174 9.57354 H
atom 1.26325 1.26612 7.36577 C
atom 0.81071 1.99203 6.67495 H
atom 0.81885 0.27653 7.19702 H
atom 2.78353 1.29198 7.44134 C
atom 4.07727 1.17141 7.04223 C
atom 4.60838 0.87506 6.14658 H
atom 1.85482 1.50341 2.70809 O
atom 2.66279 1.83244 1.63032 C
atom 2.13020 2.13217 0.73671 H
atom 3.95740 1.70667 2.02491 C
atom 5.47752 1.72874 1.94415 C
atom 5.92377 2.71716 1.77352 H
atom 5.92603 1.00176 1.25169 H
atom 5.47948 1.26612 3.45947 C
atom 5.93201 1.99203 4.15030 H
atom 5.92389 0.27653 3.62821 H
atom 3.95920 1.29194 3.38390 C
atom 2.66546 1.17132 3.78301 C
atom 2.13435 0.87495 4.67866 H
atom 1.86083 5.05278 8.12085 O
atom 2.66988 5.38286 9.19729 C
atom 2.13810 5.67985 10.09229 H
atom 3.96409 5.26139 8.80021 C
atom 5.48423 5.28633 8.87870 C
atom 5.92940 6.27486 9.05145 H
atom 5.93461 4.55798 9.56837 H
atom 5.48475 4.82695 7.36235 C
atom 5.93345 5.55596 6.67215 H
atom 5.93215 3.83925 7.19027 H
atom 3.96444 4.84821 7.44072 C
atom 2.67017 4.72398 7.04407 C
atom 2.13816 4.42664 6.14925 H
atom 4.88196 5.05273 2.70438 O
atom 4.07294 5.38286 1.62797 C
atom 4.60472 5.67985 0.73298 H
atom 2.77872 5.26134 2.02504 C
atom 1.25858 5.28623 1.94653 C
atom 0.81338 6.27474 1.77377 H
atom 0.80822 4.55785 1.25686 H
atom 1.25806 4.82686 3.46289 C
atom 0.80932 5.55587 4.15307 H
atom 0.81068 3.83915 3.63498 H
atom 2.77837 4.84817 3.38454 C
atom 4.07263 4.72400 3.78120 C
atom 4.60464 4.42669 4.67603 H
