lattice_vector 5.22622276327 0.0 0.0
lattice_vector -0.00433101540768 7.23072402567 0.0
lattice_vector -0.42401464276 -0.062537799843 14.1043200411
atom 1.32638 2.38854 11.16743 O
atom 0.08117 2.26945 11.77084 C
atom -0.60065 1.59000 11.27053 H
atom 0.07672 3.05754 12.88045 C
atom -0.43367 3.71113 14.15764 C
atom -0.68390 3.02462 14.97711 H
atom -1.25889 4.42151 14.02135 H
atom 0.99365 4.38959 14.28024 C
atom 1.57406 4.06712 15.15669 H
atom 0.99651 5.48606 14.24891 H
atom 1.35041 3.68496 12.97601 C
atom 2.09746 3.26599 11.91759 C
atom 3.10401 3.42195 11.54530 H
atom 3.08766 6.08926 3.41942 O
atom 4.33251 5.97394 2.81471 C
atom 5.01409 5.29017 3.30942 H
atom 4.33732 6.77066 1.71116 C
atom 4.84804 7.43559 0.43985 C
atom 5.09768 6.75759 -0.38667 H
atom 5.67403 8.14366 0.58300 H
atom 3.42112 8.11598 0.32367 C
atom 2.84046 7.80247 -0.55585 H
atom 3.41879 9.21199 0.36610 H
atom 3.06398 7.39934 1.62100 C
atom 2.31701 6.97295 2.67642 C
atom 1.31080 7.12713 3.05034 H
atom 0.14404 2.52291 4.11679 O
atom 1.38962 2.35580 4.70884 C
atom 2.06924 1.70611 4.16741 H
atom 1.40296 3.07237 5.86604 C
atom 1.92002 3.63877 7.18185 C
atom 2.15129 2.89408 7.95422 H
atom 2.75884 4.34123 7.09552 H
atom 0.50230 4.32826 7.34547 C
atom -0.08049 3.96672 8.20439 H
atom 0.51414 5.42502 7.37163 H
atom 0.13485 3.70372 6.00386 C
atom -0.61852 3.35734 4.92410 C
atom -1.62242 3.55130 4.56301 H
atom 4.27056 6.11126 10.47053 O
atom 3.02472 5.94766 9.87811 C
atom 2.34576 5.29403 10.41564 H
atom 3.01057 6.67179 8.72551 C
atom 2.49254 7.24830 7.41441 C
atom 2.26102 6.51047 6.63573 H
atom 1.65322 7.94927 7.50710 H
atom 3.90989 7.93960 7.25536 C
atom 4.49221 7.58591 6.39288 H
atom 3.89749 9.03653 7.23903 H
atom 4.27853 7.30400 8.59125 C
atom 5.03249 6.95096 9.66832 C
atom 6.03610 7.14401 10.03063 H
