lattice_vector 7.08771190583 0 0
lattice_vector 0.066306589282 10.4055455928 0
lattice_vector 0.109066845452 4.99966062841 13.2934996331
atom 4.14736 5.03604 5.06739 S
atom 6.04498 2.92236 4.91567 C
atom 6.97396 5.51820 4.94972 C
atom 7.54648 3.84197 4.87055 S
atom 5.63136 5.98218 4.99860 C
atom 4.75414 3.38434 4.97735 C
atom 3.68997 2.44688 5.00402 C
atom 6.24953 1.51948 4.86638 C
atom 2.77863 1.71340 5.03455 N
atom 6.38943 0.36039 4.81889 N
atom 5.61669 7.37303 4.98510 C
atom 4.45624 8.16922 5.02940 C
atom 3.44634 8.75982 5.05747 N
atom 7.92099 6.43409 4.91945 N
atom 7.26460 7.96774 4.92005 S
atom 0.68386 9.57484 1.67050 S
atom 2.61015 11.66574 1.72156 C
atom 3.50439 9.05716 1.69334 C
atom 4.09849 10.72439 1.80550 S
atom 2.15839 8.60820 1.65848 C
atom 1.31288 11.22313 1.65876 C
atom 0.25748 12.17107 1.60173 C
atom 2.83638 13.06445 1.76285 C
atom -0.65020 12.90896 1.57034 N
atom 2.99645 14.22002 1.82218 N
atom 2.12837 7.21717 1.62198 C
atom 0.95846 6.43138 1.59831 C
atom -0.05677 5.85081 1.61228 N
atom 4.44392 8.13127 1.66839 N
atom 3.76911 6.60475 1.63439 S
atom 3.11574 10.36918 8.22608 S
atom 1.21811 12.48286 8.37782 C
atom 0.28914 9.88703 8.34376 C
atom -0.28339 11.56325 8.42297 S
atom 1.63174 9.42304 8.29489 C
atom 2.50895 12.02087 8.31613 C
atom 3.57310 12.95836 8.28942 C
atom 1.01357 13.88573 8.42710 C
atom 4.48453 13.69174 8.25897 N
atom 0.87360 15.04481 8.47464 N
atom 1.64640 8.03219 8.30840 C
atom 2.80684 7.23599 8.26413 C
atom 3.81678 6.64545 8.23610 N
atom -0.65789 8.97113 8.37402 N
atom -0.00152 7.43749 8.37344 S
atom 6.57922 5.83036 11.62299 S
atom 4.65293 3.73946 11.57197 C
atom 3.75869 6.34803 11.60019 C
atom 3.16458 4.68081 11.48807 S
atom 5.10468 6.79700 11.63503 C
atom 5.95020 4.18207 11.63475 C
atom 7.00560 3.23413 11.69173 C
atom 4.42669 2.34075 11.53066 C
atom 7.91327 2.49622 11.72310 N
atom 4.26662 1.18517 11.47131 N
atom 5.13471 8.18803 11.67151 C
atom 6.30461 8.97382 11.69515 C
atom 7.31985 9.55438 11.68120 N
atom 2.81915 7.27392 11.62516 N
atom 3.49397 8.80045 11.65911 S
