lattice_vector 6.57723145127 0.0 0.0
lattice_vector 3.17263893893 5.79427567971 0.0
lattice_vector 0.988835940821 0.221448379133 13.1305363667
atom 6.90527 3.09459 0.83468 O
atom 8.26454 3.26534 0.62685 C
atom 8.80957 2.35540 0.40773 H
atom 8.54642 4.59011 0.75874 C
atom 9.35574 5.88121 0.76636 C
atom 9.80076 6.17334 -0.19435 H
atom 10.11343 5.94995 1.55507 H
atom 8.00490 6.63098 1.09819 C
atom 7.69646 7.34438 0.32384 H
atom 7.99322 7.12927 2.07595 H
atom 7.32746 5.26498 1.05604 C
atom 6.33682 4.33204 1.09415 C
atom 5.26744 4.30957 1.26794 H
atom 5.87182 3.93671 7.51768 O
atom 4.51461 3.77068 7.73114 C
atom 3.95364 4.69357 7.81574 H
atom 4.25179 2.43443 7.75111 C
atom 3.46006 1.13615 7.86849 C
atom 2.71105 0.96116 7.08613 H
atom 3.00654 0.94865 8.85026 H
atom 4.82617 0.37654 7.63144 C
atom 4.84691 -0.22006 6.70968 H
atom 5.13774 -0.24987 8.47772 H
atom 5.48374 1.75001 7.54143 C
atom 6.46042 2.68955 7.40646 C
atom 7.53377 2.70353 7.26258 H
atom 8.39002 3.68472 10.63818 O
atom 7.03076 3.51395 10.84583 C
atom 6.48572 4.42391 11.06492 H
atom 6.74889 2.18918 10.71397 C
atom 5.93957 0.89808 10.70634 C
atom 5.49446 0.60599 11.66700 H
atom 5.18199 0.82928 9.91758 H
atom 7.29041 0.14832 10.37468 C
atom 7.59874 -0.56500 11.14909 H
atom 7.30224 -0.35004 9.39702 H
atom 7.96785 1.51432 10.41680 C
atom 8.95850 2.44726 10.37870 C
atom 10.02788 2.46973 10.20499 H
atom 2.84626 2.84259 3.95516 O
atom 4.20345 3.00862 3.74165 C
atom 4.76442 2.08573 3.65707 H
atom 4.46628 4.34487 3.72167 C
atom 5.25801 5.64314 3.60429 C
atom 6.00702 5.81814 4.38664 H
atom 5.71153 5.83065 2.62251 H
atom 3.89190 6.40276 3.84134 C
atom 3.87116 6.99935 4.76310 H
atom 3.58033 7.02917 2.99506 H
atom 3.23433 5.02929 3.93134 C
atom 2.25765 4.08975 4.06633 C
atom 1.18430 4.07577 4.21021 H
