lattice_vector      5.5278826755      0.0000000000      0.0000000000
lattice_vector      0.0000000000      5.2443100589      0.0000000000
lattice_vector     -1.5472698107      0.0000000000      5.3466840435
atom      0.8246473891      2.1714935899      0.5944639010 C
atom      0.9911433337      2.7206349498      1.9817353434 C
atom      2.0363232520      2.6636267620      2.2670328403 H
atom      0.3796679332      2.1360140202      2.6559068561 H
atom      0.5501842834      4.1118945863      2.0264860579 N
atom     -0.3496086485      4.2034673168      1.5734787589 H
atom      1.2172126163      4.7033172356      1.5461204281 H
atom      0.4653547634      4.4217773522      2.9861411329 H
atom      1.5892839673      1.2667516001      0.2021362144 O
atom     -0.0992824189      2.6245832648     -0.1059448379 O
atom      1.0389457900     -0.1944299337      4.0130979269 C
atom      1.5522293600     -0.0725273282      2.6075806132 C
atom      0.8152511472      0.4419339877      1.9999307757 H
atom      1.7354645726     -1.0671241291      2.2236625411 H
atom      2.8037637402      0.6794949628      2.5943497608 N
atom      3.4263306227      0.3260377381      3.3089874071 H
atom      2.6224643446      1.6588732402      2.7771266857 H
atom      3.2566588722      0.5900689786      1.6937664877 H
atom     -0.1901132441     -0.2911016608      4.2060140911 O
atom      1.8713167697     -0.2251003488      4.9381529648 O
