lattice_vector 7.178584 0.0 0.0
lattice_vector -0.557209002757 7.13882170376 0.0
lattice_vector -0.928811461315 -1.05563841369 3.89156578653
atom -2.08101 -0.78731 2.11796 C
atom -2.10755 -2.27329 2.31489 C
atom -1.63659 -2.48804 3.26041 H
atom -3.13413 -2.61046 2.32543 H
atom -1.37627 -2.95122 1.24439 N
atom -1.88269 -2.86774 0.37174 H
atom -0.45792 -2.54088 1.13206 H
atom -1.27623 -3.93393 1.46888 H
atom -3.10779 -0.11449 2.35044 O
atom -0.99628 -0.27978 1.77281 O
atom 1.69409 2.56342 0.23280 C
atom 1.66753 1.07744 0.42972 C
atom 2.13848 0.86268 1.37525 H
atom 0.64095 0.74027 0.44025 H
atom 2.39883 0.39951 -0.64077 N
atom 1.89240 0.48295 -1.51341 H
atom 3.31716 0.80988 -0.75312 H
atom 2.49890 -0.58319 -0.41625 H
atom 0.66731 3.23624 0.46529 O
atom 2.77882 3.07094 -0.11236 O
