lattice_vector 5.37812703695 0.0 0.0
lattice_vector 0.188440451157 6.90174624186 0.0
lattice_vector 0.810730735424 0.10744888846 13.4620199187
atom 3.57943 8.46031 10.93674 O
atom 2.87023 7.26783 10.84149 C
atom 1.92351 7.33106 10.32005 H
atom 3.58549 6.30654 11.48404 C
atom 3.96337 4.92749 12.00296 C
atom 4.14976 4.18536 11.21681 H
atom 3.28690 4.49991 12.75426 H
atom 5.27303 5.60026 12.59179 C
atom 6.21467 5.22562 12.17120 H
atom 5.32863 5.59700 13.68745 H
atom 4.77172 6.90636 11.99205 C
atom 4.75222 8.21998 11.64385 C
atom 5.40647 9.07789 11.74382 H
atom 2.75216 -1.45113 2.52410 O
atom 3.46137 -0.25864 2.61935 C
atom 4.40809 -0.32187 3.14080 H
atom 2.74611 0.70265 1.97680 C
atom 2.36823 2.08170 1.45789 C
atom 2.18184 2.82383 2.24403 H
atom 3.04470 2.50927 0.70659 H
atom 1.05857 1.40892 0.86906 C
atom 0.11692 1.78357 1.28965 H
atom 1.00296 1.41218 -0.22661 H
atom 1.55987 0.10283 1.46880 C
atom 1.57937 -1.21079 1.81699 C
atom 0.92512 -2.06870 1.71703 H
atom 6.02115 4.99602 9.25511 O
atom 6.66528 3.80505 9.35036 C
atom 7.61568 3.87661 9.87181 H
atom 5.89725 2.83351 8.70781 C
atom 5.44384 1.44617 8.18890 C
atom 5.21727 0.71659 8.97504 H
atom 6.09663 1.00661 7.43760 H
atom 4.17066 2.10955 7.60007 C
atom 3.20874 1.74162 8.02066 H
atom 4.11440 2.08880 6.50440 H
atom 4.74355 3.42522 8.19981 C
atom 4.83493 4.74440 8.54800 C
atom 4.22748 5.60071 8.44804 H
atom 0.31044 2.01317 4.20573 O
atom -0.33369 3.20413 4.11048 C
atom -1.28409 3.13258 3.58904 H
atom 0.43434 4.17568 4.75303 C
atom 0.88776 5.56301 5.27194 C
atom 1.11433 6.29259 4.48580 H
atom 0.23496 6.00258 6.02325 H
atom 2.16094 4.89964 5.86078 C
atom 3.12286 5.26757 5.44018 H
atom 2.21720 4.92039 6.95644 H
atom 1.58805 3.58397 5.26103 C
atom 1.49666 2.26479 4.91284 C
atom 2.10411 1.40848 5.01280 H
