lattice_vector 7.45851271555 0.0 0.0
lattice_vector 0.0364785987959 7.65520591262 0.0
lattice_vector 0.0152110780743 3.11787600321 8.60284581052
atom 5.35967 1.05038 2.99192 O
atom 4.03009 0.68132 3.13630 C
atom 3.82833 0.01190 3.96213 H
atom 3.31571 1.28528 2.14923 C
atom 2.11096 1.70600 1.32272 C
atom 1.38300 2.31875 1.87072 H
atom 1.59824 0.89108 0.79713 H
atom 3.11993 2.54361 0.43021 C
atom 2.93092 3.62524 0.43725 H
atom 3.21158 2.19910 -0.60773 H
atom 4.22032 2.05231 1.36246 C
atom 5.46185 1.89918 1.89842 C
atom 6.45736 2.28770 1.72370 H
atom 2.60000 2.80468 6.91120 O
atom 3.93180 2.44259 7.05318 C
atom 4.13886 1.77940 7.88216 H
atom 4.64095 3.04798 6.06336 C
atom 5.84093 3.46664 5.22926 C
atom 6.57223 4.08156 5.77038 H
atom 6.34979 2.64946 4.70377 H
atom 4.82657 4.29928 4.33817 C
atom 5.01314 5.38123 4.34055 H
atom 4.73133 3.95095 3.30199 H
atom 3.73068 3.80885 5.27674 C
atom 2.49109 3.64980 5.81538 C
atom 1.49273 4.03093 5.64144 H
atom 1.62049 4.87751 3.00124 O
atom 0.28646 4.51917 3.13230 C
atom 0.07019 3.85473 3.95811 H
atom -0.41246 5.12579 2.13615 C
atom -1.60477 5.54811 1.29269 C
atom -2.33722 6.16683 1.82781 H
atom -2.11296 4.73253 0.76424 H
atom -0.58069 6.37709 0.40933 C
atom -0.76387 7.45966 0.41047 H
atom -0.47866 6.02886 -0.62633 H
atom 0.50609 5.88366 1.35668 C
atom 1.74078 5.72187 1.90623 C
atom 2.74149 6.10091 1.74050 H
atom -1.09987 6.62058 6.92032 O
atom 0.23272 6.25952 7.05812 C
atom 0.44183 5.58890 7.88083 H
atom 0.93981 6.87296 6.07186 C
atom 2.13823 7.29733 5.23832 C
atom 2.86787 7.91266 5.78093 H
atom 2.64875 6.48331 4.70968 H
atom 1.12097 8.13194 4.35206 C
atom 1.30699 9.21391 4.35653 H
atom 1.02346 7.78662 3.31501 H
atom 0.02765 7.63728 5.29102 C
atom -1.21122 7.47276 5.83002 C
atom -2.20972 7.85658 5.66188 H
