lattice_vector 6.78008618124 0 0
lattice_vector 0.0532488653182 10.2619847483 0
lattice_vector 0.0986299359243 0.0790625426253 13.998846577
atom 3.74188 2.04987 14.74578 S
atom 3.74176 4.20936 12.90672 C
atom 3.72476 1.66003 11.89486 C
atom 3.73025 3.35776 11.36498 S
atom 3.72934 1.15651 13.23005 C
atom 3.74672 3.72695 14.19269 C
atom 3.75630 4.61248 15.29967 C
atom 3.74629 5.61822 12.72507 C
atom 3.76343 5.29498 16.25026 N
atom 3.75016 6.77551 12.56973 N
atom 3.72148 -0.23308 13.21796 C
atom 3.72322 -1.06535 14.35088 C
atom 3.72842 -1.71267 15.32495 N
atom 3.71443 0.75609 10.93489 N
atom 3.70890 -0.78790 11.55570 S
atom 0.28029 8.31499 -0.72707 S
atom 0.27495 6.15601 1.11258 C
atom 0.29531 8.70565 2.12381 C
atom 0.29153 7.00798 2.65409 S
atom 0.29103 9.20875 0.78864 C
atom 0.26985 6.63796 -0.17361 C
atom 0.25685 5.75235 -1.28055 C
atom 0.26664 4.74721 1.29425 C
atom 0.24805 5.06928 -2.23066 N
atom 0.26298 3.58963 1.44729 N
atom 0.29857 10.59828 0.80023 C
atom 0.29676 11.43000 -0.33309 C
atom 0.29759 12.07759 -1.30699 N
atom 0.30515 9.60980 3.08366 N
atom 0.31047 11.15378 2.46219 S
atom 3.73320 9.09489 7.75043 S
atom 3.70517 6.92198 5.92618 C
atom 3.70346 9.46956 4.89475 C
atom 3.68659 7.76850 4.37696 S
atom 3.72340 9.97846 6.22822 C
atom 3.72333 7.41231 7.20845 C
atom 3.73975 6.54216 8.32747 C
atom 3.70243 5.51285 5.74988 C
atom 3.75372 5.88362 9.29389 N
atom 3.69706 4.35612 5.59374 N
atom 3.73362 11.36699 6.20971 C
atom 3.75464 12.19694 7.34416 C
atom 3.77399 12.83748 8.32209 N
atom 3.69789 10.37117 3.93200 N
atom 3.71708 11.92087 4.55080 S
atom 0.28669 1.27017 6.26815 S
atom 0.32952 3.44221 8.09315 C
atom 0.31702 0.89440 9.12347 C
atom 0.33347 2.59520 9.64209 S
atom 0.29870 0.38607 7.78975 C
atom 0.31185 2.95248 6.81055 C
atom 0.31289 3.82267 5.69153 C
atom 0.34840 4.85115 8.26932 C
atom 0.31198 4.48072 4.72472 N
atom 0.36268 6.00820 8.42238 N
atom 0.29030 -1.00250 7.80783 C
atom 0.27015 -1.83180 6.67299 C
atom 0.25158 -2.47251 5.69519 N
atom 0.32194 -0.00745 10.08599 N
atom 0.30556 -1.55706 9.46654 S
