lattice_vector 9.59117172878 0 0
lattice_vector 4.68827066988 9.51546455936 0
lattice_vector 0.0212782896776 0.0249159297296 11.3944092166
atom 6.42169 0.12775 4.51623 S
atom 5.18093 2.57542 5.06406 C
atom 7.83718 2.38165 5.46087 C
atom 6.40130 3.05942 6.25925 S
atom 7.83768 1.14971 4.75404 C
atom 5.17617 1.39189 4.36862 C
atom 4.10356 1.09937 3.48773 C
atom 4.16042 3.52920 4.82924 C
atom 3.17509 0.87621 2.81144 N
atom 3.32243 4.31030 4.59687 N
atom 9.11019 0.88685 4.26646 C
atom 9.53574 -0.25824 3.57062 C
atom 9.87978 -1.23481 3.02808 N
atom 8.97239 3.04682 5.52333 N
atom 10.16620 2.20124 4.73157 S
atom 10.33678 4.66750 10.21330 S
atom 11.58061 2.22109 10.75862 C
atom 8.92451 2.41168 11.15778 C
atom 10.36190 1.73549 11.95458 S
atom 8.92245 3.64310 10.44993 C
atom 11.58385 3.40482 10.06361 C
atom 12.65543 3.69887 9.18212 C
atom 12.60258 1.26883 10.52333 C
atom 13.58336 3.92366 8.50566 N
atom 13.44409 0.49100 10.29265 N
atom 7.64920 3.90418 9.96321 C
atom 7.22140 5.04824 9.26723 C
atom 6.87321 6.02612 8.72972 N
atom 7.78988 1.74577 11.22217 N
atom 6.59479 2.58952 10.43064 S
atom 7.87914 9.41256 6.87891 S
atom 9.12001 6.96505 6.33038 C
atom 6.46375 7.15885 5.93359 C
atom 7.89964 6.48118 5.13516 S
atom 6.46318 8.39069 6.64061 C
atom 9.12465 8.14837 7.02619 C
atom 10.19718 8.44072 7.90723 C
atom 10.14081 6.01144 6.56463 C
atom 11.12557 8.66393 8.58362 N
atom 10.97903 5.23039 6.79639 N
atom 5.19060 8.65350 7.12805 C
atom 4.76496 9.79856 7.82387 C
atom 4.42088 10.77513 8.36638 N
atom 5.32854 6.49368 5.87094 N
atom 4.13465 7.33916 6.66269 S
atom 3.96374 4.87278 1.18028 S
atom 2.71999 7.31937 0.63582 C
atom 5.37606 7.12885 0.23655 C
atom 3.93865 7.80517 -0.56011 S
atom 5.37807 5.89730 0.94417 C
atom 2.71666 6.13540 1.33040 C
atom 1.64505 5.84106 2.21177 C
atom 1.69829 8.27176 0.87171 C
atom 0.71709 5.61599 2.88810 N
atom 0.85700 9.04963 1.10302 N
atom 6.65126 5.63618 1.43103 C
atom 7.07895 4.49212 2.12708 C
atom 7.42707 3.51425 2.66465 N
atom 6.51069 7.79477 0.17234 N
atom 7.70571 6.95090 0.96387 S
