lattice_vector 7.02078078293 0 0
lattice_vector -2.22887457082 11.3232443494 0
lattice_vector -0.00490780978445 -0.0312520174165 12.4310028205
atom 6.18692 6.64082 11.85723 S
atom 4.12088 8.18847 10.70873 C
atom 3.43888 5.96285 12.15470 C
atom 2.79549 7.54891 11.68564 S
atom 4.81296 5.60414 12.22045 C
atom 5.44041 7.82410 10.77121 C
atom 6.38556 8.49633 9.95901 C
atom 3.70443 9.22817 9.84174 C
atom 7.18099 9.08084 9.33040 N
atom 3.33464 10.11407 9.17521 N
atom 4.93261 4.29674 12.67491 C
atom 6.11480 3.54116 12.79687 C
atom 7.09789 2.91056 12.85002 N
atom 2.55592 5.05165 12.50731 N
atom 3.33377 3.67791 13.03781 S
atom -1.39812 4.63324 5.64505 S
atom 0.66903 3.08864 4.49612 C
atom 1.34866 5.31410 5.94213 C
atom 1.99114 3.72570 5.47983 S
atom -0.02557 5.67238 6.00643 C
atom -0.65042 3.45323 4.55622 C
atom -1.59411 2.78591 3.73832 C
atom 1.08869 2.05257 3.62654 C
atom -2.38637 2.20630 3.10129 N
atom 1.46436 1.16993 2.95895 N
atom -0.14577 6.98164 6.45526 C
atom -1.32750 7.73839 6.57397 C
atom -2.30960 8.37043 6.62792 N
atom 2.23136 6.22738 6.29026 N
atom 1.45289 7.60278 6.81471 S
atom 1.20996 1.17638 9.94263 S
atom 3.14017 3.12628 9.39100 C
atom 3.83823 1.01519 10.94023 C
atom 4.49337 1.99439 9.60711 S
atom 2.45877 0.71314 11.09613 C
atom 1.81590 2.79258 9.51230 C
atom 0.81483 3.77006 9.29372 C
atom 3.53497 4.44795 9.06687 C
atom -0.00791 4.57796 9.09672 N
atom 3.88963 5.52887 8.79401 N
atom 2.27504 -0.04840 12.24389 C
atom 1.09406 -0.61303 12.76211 C
atom 0.15040 -1.15013 13.19567 N
atom 4.67573 0.55621 11.84958 N
atom 3.83639 -0.32163 12.98520 S
atom 3.58990 10.10917 3.72409 S
atom 1.66033 8.15944 3.17418 C
atom 0.96171 10.27070 4.72023 C
atom 0.30913 9.29538 3.38307 S
atom 2.34119 10.57164 4.87798 C
atom 2.98464 8.49201 3.29614 C
atom 3.98565 7.51365 3.08209 C
atom 1.26404 6.83641 2.85785 C
atom 4.80892 6.70593 2.88668 N
atom 0.90773 5.75474 2.59063 N
atom 2.52479 11.32885 6.02864 C
atom 3.70577 11.89007 6.55029 C
atom 4.64942 12.42324 6.98869 N
atom 0.12387 10.72662 5.63089 N
atom 0.96323 11.59999 6.77009 S
