lattice_vector 5.39080037169 0.0 0.0
lattice_vector -1.5909886443 7.56823129591 0.0
lattice_vector -0.00132342066597 -0.0250222451337 12.4005786815
atom 2.74409 1.88806 6.09455 O
atom 3.50361 1.12926 5.21533 C
atom 4.46151 0.80542 5.60612 H
atom 2.80083 0.99406 4.05817 C
atom 2.48258 0.60339 2.61797 C
atom 2.37664 -0.47380 2.43507 H
atom 3.15175 1.03778 1.86266 H
atom 1.10610 1.36879 2.80632 C
atom 0.21820 0.72929 2.72740 H
atom 0.96535 2.24238 2.15695 H
atom 1.56642 1.68402 4.22111 C
atom 1.54941 2.22303 5.46978 C
atom 0.88129 2.84381 6.05433 H
atom -0.85163 1.86224 12.29180 O
atom -1.60982 2.62351 11.41317 C
atom -2.56896 2.94482 11.80294 H
atom -0.90392 2.76409 10.25860 C
atom -0.58366 3.15742 8.81944 C
atom -0.47856 4.23473 8.63762 H
atom -1.25141 2.72297 8.06300 H
atom 0.79337 2.39334 9.00888 C
atom 1.68041 3.03433 8.93262 H
atom 0.93664 1.52128 8.35815 H
atom 0.33067 2.07471 10.42215 C
atom 0.34470 1.53044 11.66860 C
atom 1.01229 0.90848 12.25255 H
atom 1.05440 5.65515 6.30603 O
atom 0.29488 6.41395 7.18525 C
atom -0.66302 6.73778 6.79446 H
atom 0.99766 6.54914 8.34241 C
atom 1.31591 6.93982 9.78261 C
atom 1.42185 8.01701 9.96551 H
atom 0.64674 6.50543 10.53792 H
atom 2.69238 6.17442 9.59426 C
atom 3.58029 6.81392 9.67318 H
atom 2.83314 5.30083 10.24363 H
atom 2.23207 5.85919 8.17947 C
atom 2.24908 5.32018 6.93080 C
atom 2.91719 4.69940 6.34625 H
atom 4.65011 5.68097 0.10878 O
atom 5.40831 4.91970 0.98741 C
atom 6.36745 4.59839 0.59764 H
atom 4.70240 4.77912 2.14198 C
atom 4.38215 4.38579 3.58114 C
atom 4.27705 3.30848 3.76296 H
atom 5.04990 4.82024 4.33758 H
atom 3.00511 5.14987 3.39170 C
atom 2.11808 4.50888 3.46796 H
atom 2.86184 6.02193 4.04243 H
atom 3.46781 5.46850 1.97843 C
atom 3.45379 6.01277 0.73198 C
atom 2.78620 6.63473 0.14803 H
