lattice_vector 6.5002032663 0 0
lattice_vector 3.20910881186 5.86088158785 0
lattice_vector 0.989182985318 0.221526099246 13.1351446947
atom 3.99190 -0.19570 1.58694 O
atom 5.35118 -0.02494 1.37912 C
atom 5.89621 -0.93488 1.16000 H
atom 5.63306 1.29982 1.51100 C
atom 6.44238 2.59093 1.51862 C
atom 6.88739 2.88305 0.55792 H
atom 7.20007 2.65966 2.30734 H
atom 5.09153 3.34069 1.85045 C
atom 4.78310 4.05409 1.07610 H
atom 5.07985 3.83898 2.82822 H
atom 4.41410 1.97469 1.80830 C
atom 3.42345 1.04175 1.84642 C
atom 2.35407 1.01928 2.02021 H
atom 4.27759 5.39768 8.07259 O
atom 2.92039 5.23165 8.28605 C
atom 2.35942 6.15454 8.37065 H
atom 2.65756 3.89540 8.30602 C
atom 1.86583 2.59712 8.42340 C
atom 1.11683 2.42213 7.64104 H
atom 1.41231 2.40962 9.40518 H
atom 3.23194 1.83751 8.18636 C
atom 3.25269 1.24092 7.26460 H
atom 3.54352 1.21110 9.03263 H
atom 3.88951 3.21098 8.09635 C
atom 4.86619 4.15052 7.96137 C
atom 5.93954 4.16451 7.81749 H
atom 6.70657 6.27812 11.54827 O
atom 5.34731 6.10735 11.75592 C
atom 4.80227 7.01731 11.97501 H
atom 5.06544 4.78258 11.62406 C
atom 4.25612 3.49148 11.61643 C
atom 3.81101 3.19939 12.57709 H
atom 3.49854 3.42268 10.82767 H
atom 5.60697 2.74172 11.28477 C
atom 5.91529 2.02840 12.05918 H
atom 5.61879 2.24336 10.30711 H
atom 6.28440 4.10772 11.32689 C
atom 7.27505 5.04066 11.28879 C
atom 8.34443 5.06313 11.11508 H
atom 6.42091 0.68472 5.06261 O
atom 7.77810 0.85075 4.84910 C
atom 8.33907 -0.07214 4.76451 H
atom 8.04092 2.18701 4.82911 C
atom 8.83266 3.48528 4.71173 C
atom 9.58166 3.66027 5.49409 H
atom 9.28617 3.67278 3.72995 H
atom 7.46655 4.24490 4.94878 C
atom 7.44581 4.84149 5.87054 H
atom 7.15498 4.87131 4.10250 H
atom 6.80898 2.87143 5.03878 C
atom 5.83230 1.93189 5.17377 C
atom 4.75895 1.91790 5.31765 H
