lattice_vector 7.18611250725 0 0
lattice_vector 0.0779738285475 9.18417861374 0
lattice_vector 0.994076804754 0.523085201716 16.525127707
atom 1.93918 2.09732 -0.36531 S
atom 2.99747 3.35962 1.89848 C
atom 4.71319 2.12812 0.19102 C
atom 4.48677 2.39233 1.93213 S
atom 3.65349 2.00988 -0.74800 C
atom 1.97940 3.24717 0.98789 C
atom 0.86464 4.11825 1.04142 C
atom 2.92421 4.34799 2.91407 C
atom -0.06345 4.82787 1.08164 N
atom 2.84897 5.15243 3.76081 N
atom 4.16941 1.78146 -2.01693 C
atom 3.48639 1.67108 -3.24147 C
atom 2.94625 1.58972 -4.27517 N
atom 5.94661 2.00423 -0.27163 N
atom 5.90565 1.69367 -1.90886 S
atom 6.60083 8.38611 16.79208 S
atom 7.61196 6.92813 14.62139 C
atom 9.36800 8.24765 16.22609 C
atom 9.12676 7.84434 14.51079 S
atom 8.31933 8.48384 17.15479 C
atom 6.61692 7.12722 15.54112 C
atom 5.48680 6.27700 15.56517 C
atom 7.44791 5.91061 13.64720 C
atom 4.54913 5.58006 15.59408 N
atom 7.25503 5.08360 12.84287 N
atom 8.84638 8.83185 18.39295 C
atom 8.13667 9.16817 19.56202 C
atom 7.52643 9.46837 20.51433 N
atom 10.60406 8.37953 16.67465 N
atom 10.58776 8.83896 18.27724 S
atom 2.41622 6.16181 8.56705 S
atom 3.38874 7.52821 6.32824 C
atom 5.16781 6.24302 7.93062 C
atom 4.87405 6.56360 6.20525 S
atom 4.14189 6.08772 8.90115 C
atom 2.40670 7.37670 7.27207 C
atom 1.28649 8.24205 7.29061 C
atom 3.24361 8.53671 5.34130 C
atom 0.35411 8.94687 7.31264 N
atom 3.07857 9.36127 4.52777 N
atom 4.69832 5.83421 10.14929 C
atom 4.02393 5.66205 11.37265 C
atom 3.44775 5.52197 12.38068 N
atom 6.41393 6.11541 8.35239 N
atom 6.43382 5.77296 9.98527 S
atom 5.75006 2.73303 8.02733 S
atom 6.84155 1.35660 10.20699 C
atom 8.54474 2.62835 8.51818 C
atom 8.36206 2.26929 10.24912 S
atom 7.46031 2.84625 7.62768 C
atom 5.80914 1.52332 9.32318 C
atom 4.68265 0.66821 9.37421 C
atom 6.76533 0.36261 11.21496 C
atom 3.75401 -0.04037 9.41318 N
atom 6.71656 -0.42314 12.08061 N
atom 7.94091 3.18424 6.36958 C
atom 7.17960 3.50626 5.23100 C
atom 6.51654 3.79372 4.31122 N
atom 9.76399 2.74805 8.02178 N
atom 9.68327 3.19536 6.41692 S
