lattice_vector 9.22996612252 0 0
lattice_vector 3.85825961081 9.84868804602 0
lattice_vector 0.0166166981122 0.00379860715572 11.3897335698
atom 8.83116 5.88525 5.84727 S
atom 11.23081 7.09091 5.03046 C
atom 9.67249 8.42001 6.81225 C
atom 11.38846 8.12375 6.46897 S
atom 8.62397 7.50771 6.50847 C
atom 10.23468 6.17805 4.79836 C
atom 10.28820 5.35132 3.64910 C
atom 12.25387 7.30337 4.07342 C
atom 10.35630 4.63882 2.72611 N
atom 13.09542 7.52275 3.29235 N
atom 7.40826 8.06391 6.88190 C
atom 6.11163 7.54345 6.72178 C
atom 5.02003 7.15109 6.58058 N
atom 9.34605 9.56084 7.39343 N
atom 7.69314 9.61754 7.63044 S
atom 8.86431 3.95837 0.14757 S
atom 6.46636 2.74581 -0.66648 C
atom 8.03000 1.42126 1.11551 C
atom 6.31306 1.70722 0.76800 S
atom 9.07518 2.33767 0.81197 C
atom 7.45867 3.66325 -0.89725 C
atom 7.39704 4.49568 -2.04205 C
atom 5.44187 2.53312 -1.62190 C
atom 7.32065 5.21257 -2.96101 N
atom 4.59838 2.31184 -2.40032 N
atom 10.29251 1.78754 1.18941 C
atom 11.58802 2.31216 1.03184 C
atom 12.67871 2.70919 0.89639 N
atom 8.36024 0.28323 1.70000 N
atom 10.01276 0.23429 1.94078 S
atom 4.27388 3.96686 5.54254 S
atom 1.87397 2.76154 6.35911 C
atom 3.43246 1.43216 4.57750 C
atom 1.71648 1.72843 4.92075 S
atom 4.48099 2.34435 4.88145 C
atom 2.87019 3.67425 6.59130 C
atom 2.81671 4.50114 7.74045 C
atom 0.85084 2.54913 7.31610 C
atom 2.74882 5.21397 8.66323 N
atom 0.00939 2.32937 8.09715 N
atom 5.69666 1.78808 4.50807 C
atom 6.99332 2.30856 4.66795 C
atom 8.08498 2.70084 4.80892 N
atom 3.75883 0.29133 3.99627 N
atom 5.41177 0.23462 3.75927 S
atom 4.24070 5.89441 11.24202 S
atom 6.63832 7.10724 12.05647 C
atom 5.07464 8.43174 10.27442 C
atom 6.79160 8.14606 10.62218 S
atom 4.02958 7.51515 10.57785 C
atom 5.64615 6.18960 12.28706 C
atom 5.70784 5.35698 13.43171 C
atom 7.66297 7.31966 13.01177 C
atom 5.78432 4.63991 14.35054 N
atom 8.50667 7.54043 13.79012 N
atom 2.81218 8.06514 10.20038 C
atom 1.51672 7.54036 10.35783 C
atom 0.42609 7.14315 10.49322 N
atom 4.74427 9.56975 9.68999 N
atom 3.09175 9.61845 9.44904 S
