lattice_vector 7.31614391669 0 0
lattice_vector 3.23129689168 9.17954351561 0
lattice_vector 0.169705103805 2.40629203669 15.662352289
atom 2.96098 8.00050 13.35345 S
atom 3.45681 7.66503 10.58345 C
atom 5.38316 8.91826 12.10872 C
atom 4.97147 8.55654 10.42444 S
atom 4.61273 8.61060 13.26887 C
atom 2.66374 7.48914 11.68735 C
atom 1.40945 6.83913 11.54890 C
atom 3.10103 7.09233 9.33685 C
atom 0.36206 6.32656 11.44946 N
atom 2.91240 6.64468 8.27217 N
atom 5.34404 8.95642 14.39947 C
atom 5.03538 8.70801 15.75063 C
atom 4.83243 8.45476 16.87514 N
atom 6.55424 9.49467 12.28690 N
atom 6.85743 9.68976 13.91514 S
atom 9.72172 8.60363 5.47093 S
atom 8.89335 8.07049 2.81635 C
atom 7.07815 7.67564 4.85429 C
atom 7.30952 7.34900 3.12653 S
atom 8.02605 8.23712 5.75860 C
atom 9.81275 8.56111 3.70755 C
atom 11.03935 9.10019 3.24764 C
atom 9.17178 8.07201 1.42572 C
atom 12.05285 9.57894 2.91823 N
atom 9.34672 8.02318 0.27010 N
atom 7.43676 8.39040 7.00783 C
atom 7.97208 9.00439 8.15446 C
atom 8.38499 9.55468 9.10194 N
atom 5.88681 7.37442 5.33655 N
atom 5.81213 7.75887 6.95250 S
atom 7.75455 3.58756 2.30750 S
atom 7.26018 3.92115 5.07803 C
atom 5.33307 2.66860 3.55306 C
atom 5.74471 3.03106 5.23725 S
atom 6.10381 2.97520 2.39280 C
atom 8.05278 4.09726 3.97382 C
atom 9.30712 4.74725 4.11204 C
atom 7.61693 4.49293 6.32478 C
atom 10.35433 5.26010 4.21200 N
atom 7.80633 4.93976 7.38966 N
atom 5.37281 2.62825 1.26237 C
atom 5.68201 2.87568 -0.08886 C
atom 5.88569 3.12809 -1.21343 N
atom 4.16193 2.09223 3.37513 N
atom 3.85900 1.89580 1.74695 S
atom 0.99552 2.98386 10.19191 S
atom 1.82406 3.51627 12.84648 C
atom 3.63945 3.91047 10.80864 C
atom 3.40768 4.23819 12.53612 S
atom 2.69158 3.34875 9.90449 C
atom 0.90450 3.02591 11.95534 C
atom -0.32223 2.48715 12.41527 C
atom 1.54604 3.51365 14.23717 C
atom -1.33575 2.00842 12.74465 N
atom 1.37105 3.56118 15.39284 N
atom 3.28108 3.19432 8.65550 C
atom 2.74543 2.57998 7.50921 C
atom 2.33145 2.02929 6.56242 N
atom 4.83101 4.21090 10.32642 N
atom 4.90591 3.82531 8.71080 S
