lattice_vector 5.16736655366 0.0 0.0
lattice_vector 0.00222292390682 8.51610777627 0.0
lattice_vector 0.0429122221729 0.0162447388102 10.9803166937
atom 5.55247 1.15707 1.73494 O
atom 4.75915 1.24347 0.59888 C
atom 5.00582 2.05764 -0.07359 H
atom 3.84566 0.23504 0.64954 C
atom 2.68524 -0.65874 0.22738 C
atom 2.84268 -1.24394 -0.68828 H
atom 1.71182 -0.15692 0.16472 H
atom 2.92847 -1.46739 1.56890 C
atom 3.22819 -2.51519 1.43868 H
atom 2.09162 -1.43179 2.27749 H
atom 4.07094 -0.49825 1.84908 C
atom 5.11862 0.08069 2.49653 C
atom 5.66183 -0.07191 3.42037 H
atom -0.31359 5.44014 9.18563 O
atom 0.48343 5.53070 10.31888 C
atom 0.23887 6.34749 10.98891 H
atom 1.39796 4.52329 10.26778 C
atom 2.55740 3.62835 10.69115 C
atom 2.39907 3.04616 11.60858 H
atom 3.53205 4.12805 10.75135 H
atom 2.31021 2.81583 9.35255 C
atom 2.00876 1.76907 9.48682 H
atom 3.14584 2.84717 8.64227 H
atom 1.16906 3.78588 9.07155 C
atom 0.11817 4.36145 8.42626 C
atom -0.42835 4.20470 7.50515 H
atom -0.33314 1.17735 7.23555 O
atom 0.45963 1.26052 6.09875 C
atom 0.21242 2.07242 5.42396 H
atom 1.37509 0.25421 6.15341 C
atom 2.53620 -0.63998 5.73381 C
atom 2.37944 -1.22738 4.81962 H
atom 3.50875 -0.13691 5.67062 H
atom 2.29358 -1.44482 7.07776 C
atom 1.99329 -2.49278 6.95018 H
atom 3.13077 -1.40832 7.78583 H
atom 1.15134 -0.47498 7.35581 C
atom 0.10270 0.10478 8.00105 C
atom -0.43975 -0.04670 8.92537 H
atom 5.59572 5.42965 3.68745 O
atom 4.80282 5.51226 4.82408 C
atom 5.05199 6.32205 5.50102 H
atom 3.88549 4.50766 4.76740 C
atom 2.72520 3.61226 5.18691 C
atom 2.88479 3.02219 6.09910 H
atom 1.75212 4.11399 5.25415 H
atom 2.96582 2.81047 3.84070 C
atom 3.26513 1.76186 3.96502 H
atom 2.12783 2.85050 3.13387 H
atom 4.10839 3.78029 3.56390 C
atom 5.15845 4.35862 2.91996 C
atom 5.70042 4.20843 1.99507 H
