lattice_vector 6.79440078948 0 0
lattice_vector 0.123645755463 11.6185609493 0
lattice_vector 0.0649514327148 0.00236088799308 12.9362057092
atom -0.37701 10.84818 2.25980 S
atom 0.32924 10.39545 4.95895 C
atom 0.42381 8.26329 3.22671 C
atom 0.50993 8.64057 4.95820 S
atom 0.06898 9.15259 2.16612 C
atom 0.00010 11.24761 3.93858 C
atom -0.14763 12.63572 4.18446 C
atom 0.48937 10.93123 6.26288 C
atom -0.29172 13.78296 4.36553 N
atom 0.58961 11.35402 7.34808 N
atom 0.11394 8.47445 0.95534 C
atom -0.05555 9.00828 -0.33234 C
atom -0.16985 9.47144 -1.40240 N
atom 0.71334 7.02049 2.89066 N
atom 0.55660 6.80852 1.24561 S
atom 7.40382 5.02437 10.67141 S
atom 6.69336 4.58732 7.97094 C
atom 6.54143 2.45868 9.70404 C
atom 6.45742 2.83911 7.97323 S
atom 6.91818 3.33967 10.76410 C
atom 7.04316 5.43115 8.99134 C
atom 7.22322 6.81569 8.74643 C
atom 6.55042 5.12644 6.66655 C
atom 7.38759 7.96073 8.56904 N
atom 6.46443 5.55196 5.58120 N
atom 6.85952 2.66251 11.97482 C
atom 7.03681 3.19551 13.26178 C
atom 7.15684 3.66034 14.33051 N
atom 6.22605 1.22222 10.04023 N
atom 6.38029 1.00674 11.68515 S
atom 3.07376 10.84975 10.68210 S
atom 3.74166 10.39134 7.97387 C
atom 3.85644 8.26170 9.70821 C
atom 3.92871 8.63724 7.97561 S
atom 3.51443 9.15267 10.77157 C
atom 3.42411 11.24503 8.99677 C
atom 3.27003 12.63233 8.75042 C
atom 3.88551 10.92575 6.66757 C
atom 3.12258 13.77951 8.57172 N
atom 3.97317 11.34929 5.58157 N
atom 3.56882 8.47511 11.98228 C
atom 3.41269 9.01072 13.27094 C
atom 3.30616 9.47368 14.34190 N
atom 4.14530 7.01818 10.04240 N
atom 4.00465 6.80802 11.68909 S
atom 3.95531 5.02527 2.25596 S
atom 3.28277 4.58266 4.96529 C
atom 3.11290 2.45575 3.23132 C
atom 3.04589 2.83456 4.96343 S
atom 3.47529 3.33870 2.16780 C
atom 3.61875 5.42853 3.94184 C
atom 3.80088 6.81277 4.18658 C
atom 3.15496 5.12013 6.27200 C
atom 3.96655 7.95758 4.36440 N
atom 3.08060 5.54557 7.35824 N
atom 3.40635 2.66207 0.95741 C
atom 3.57013 3.19560 -0.33105 C
atom 3.67954 3.66030 -1.40098 N
atom 2.79795 1.21850 2.89752 N
atom 2.93466 1.00470 1.25080 S
