lattice_vector 7.45851271555 0.0 0.0
lattice_vector 0.0364785987959 7.65520591262 0.0
lattice_vector 0.0152110780743 3.11787600321 8.60284581052
atom 5.34847 6.76678 1.51112 O
atom 4.01889 6.39771 1.65550 C
atom 3.81713 5.72830 2.48133 H
atom 3.30451 7.00167 0.66843 C
atom 2.09975 7.42240 -0.15808 C
atom 1.37180 8.03515 0.38992 H
atom 1.58704 6.60748 -0.68367 H
atom 3.10873 8.26001 -1.05060 C
atom 2.91972 9.34164 -1.04355 H
atom 3.20038 7.91550 -2.08854 H
atom 4.20912 7.76871 -0.11834 C
atom 5.45065 7.61558 0.41761 C
atom 6.44616 8.00410 0.24290 H
atom 2.19253 8.32572 5.81254 O
atom 3.51861 7.95665 5.95692 C
atom 3.71405 7.28724 6.78275 H
atom 4.23865 8.56061 4.96985 C
atom 5.44735 8.98134 4.14334 C
atom 6.18120 9.59409 4.69134 H
atom 5.95226 8.16641 3.61775 H
atom 4.44629 9.81895 3.25083 C
atom 4.64561 10.90058 3.25787 H
atom 4.35127 9.47444 2.21289 H
atom 3.34129 9.32765 4.18308 C
atom 2.09835 9.17452 4.71904 C
atom 1.10653 9.56304 4.54432 H
atom 1.60097 2.93918 1.51112 O
atom 0.27139 2.57011 1.65550 C
atom 0.06964 1.90070 2.48133 H
atom -0.44298 3.17407 0.66843 C
atom -1.64774 3.59479 -0.15808 C
atom -2.37570 4.20755 0.38992 H
atom -2.16045 2.77987 -0.68367 H
atom -0.63876 4.43241 -1.05060 C
atom -0.82778 5.51404 -1.04355 H
atom -0.54712 4.08790 -2.08854 H
atom 0.46162 3.94111 -0.11834 C
atom 1.70315 3.78798 0.41761 C
atom 2.69866 4.17650 0.24290 H
atom 5.90355 4.49812 5.81254 O
atom 7.22962 4.12905 5.95692 C
atom 7.42507 3.45963 6.78275 H
atom 7.94967 4.73301 4.96985 C
atom 9.15837 5.15373 4.14334 C
atom 9.89221 5.76649 4.69134 H
atom 9.66327 4.33881 3.61775 H
atom 8.15730 5.99135 3.25083 C
atom 8.35663 7.07298 3.25787 H
atom 8.06229 5.64683 2.21289 H
atom 7.05231 5.50005 4.18308 C
atom 5.80937 5.34692 4.71904 C
atom 4.81755 5.73543 4.54432 H
