#Input Lammps file for Glycine Crystal

units           real
dimension	3
boundary	p p p 

atom_style      full
bond_style      harmonic

pair_style      lj/charmm/coul/charmm 9.0 10.0
#pair_style     lj/charmm/coul/long 9.0 10.0 10.0
#kspace_style    pppm 0.0001


#Read geometry file and then define pair and bond coefficients
read_data	geo.dat

pair_coeff   1 1 0.2102 3.01319764449
pair_coeff   2 2 0.0977 3.39966950842
pair_coeff   3 3 0.1700 3.24999852378 
pair_coeff   4 4  0.0157 1.85930562476
pair_modify     mix arithmetic

bond_coeff	1 466.4 1.3060
bond_coeff	2 648.0 1.2140
bond_coeff	3 328.3 1.5080
bond_coeff	4 412.1 1.3906
bond_coeff	5 478.2 1.3450
bond_coeff	6 369.0 1.0330
special_bonds   amber

####RELAXATION######
reset_timestep 0
#fix 1 all box/relax tri 0.0
fix 1 all box/relax iso 0.0 
thermo 200
thermo_style custom step etotal lx ly lz xy xz yz vol

min_style cg
dump            1 all xyz 2000 dump.xyz


minimize 1.0e-9 1.0e-9 20000 200000
