lattice_vector 6.30570897628 0 0
lattice_vector 0.0130520814578 13.1724423722 0
lattice_vector 0.0131279791715 6.15043053958 12.0902884226
atom 4.90959 7.29547 8.41426 S
atom 6.37202 7.63729 6.00454 C
atom 4.11345 6.07061 5.93693 C
atom 5.36467 6.73582 4.86815 S
atom 3.91114 6.35861 7.31617 C
atom 6.20717 7.84802 7.35120 C
atom 7.16661 8.60145 8.07453 C
atom 7.51173 8.20441 5.37347 C
atom 7.93715 9.20157 8.71781 N
atom 8.44888 8.68019 4.86074 N
atom 2.79643 5.67037 7.77722 C
atom 2.34377 5.67585 9.10729 C
atom 2.02562 5.71424 10.23340 N
atom 3.26565 5.22794 5.37720 N
atom 2.12298 4.71184 6.47973 S
atom 1.77423 15.10504 9.71564 S
atom 3.23444 14.75683 12.12564 C
atom 0.97638 16.32448 12.19494 C
atom 2.22718 15.65699 13.26293 S
atom 0.77423 16.03790 10.81542 C
atom 3.07018 14.54874 10.77856 C
atom 4.02937 13.79575 10.05466 C
atom 4.37299 14.18762 12.75681 C
atom 4.79949 13.19605 9.41058 N
atom 5.30836 13.70966 13.27075 N
atom -0.34066 16.72624 10.35490 C
atom -0.79398 16.72206 9.02505 C
atom -1.11348 16.68506 7.89926 N
atom 0.12880 17.16690 12.75537 N
atom -1.01355 17.68425 11.65292 S
atom 1.42400 12.02641 3.67587 S
atom -0.03875 11.68468 6.08540 C
atom 2.21979 13.25134 6.15326 C
atom 0.96883 12.58562 7.22206 S
atom 2.42220 12.96345 4.77402 C
atom 0.12615 11.47413 4.73874 C
atom -0.83344 10.72088 4.01542 C
atom -1.17846 11.11777 6.71660 C
atom -1.60419 10.12092 3.37221 N
atom -2.11351 10.64288 7.23397 N
atom 3.53683 13.65189 4.31305 C
atom 3.98981 13.64644 2.98308 C
atom 4.30832 13.60803 1.85708 N
atom 3.06738 14.09417 6.71306 N
atom 4.21006 14.61044 5.61066 S
atom 4.55794 4.21672 2.37427 S
atom 3.09848 4.56606 -0.03601 C
atom 5.35640 2.99814 -0.10522 C
atom 4.10532 3.66524 -1.17315 S
atom 5.55846 3.28463 1.27434 C
atom 3.26266 4.77407 1.31110 C
atom 2.30392 5.52767 2.03499 C
atom 1.96029 5.13584 -0.66732 C
atom 1.53367 6.12712 2.67916 N
atom 1.02392 5.61236 -1.18078 N
atom 6.67358 2.59662 1.73479 C
atom 7.12682 2.60058 3.06468 C
atom 7.44643 2.63715 4.19046 N
atom 6.20425 2.15606 -0.66573 N
atom 7.34674 1.63894 0.43669 S
