lattice_vector 7.14197522225 0 0
lattice_vector -0.607313073202 11.1509560396 0
lattice_vector -0.0110282912675 -0.0391936676703 13.1971031355
atom 6.08751 2.32520 11.22414 S
atom 7.25441 1.52097 8.79498 C
atom 4.86384 2.80692 8.71406 C
atom 5.72380 1.49080 7.89229 S
atom 5.04853 3.16637 10.07689 C
atom 7.39297 1.81404 10.12851 C
atom 8.65646 1.68260 10.75789 C
atom 8.39307 1.18619 8.01872 C
atom 9.68657 1.54098 11.29380 N
atom 9.33252 0.92147 7.37431 N
atom 4.21671 4.23645 10.38871 C
atom 4.07686 4.93157 11.60386 C
atom 3.95423 5.54243 12.59350 N
atom 3.98955 3.49622 8.01024 N
atom 3.28745 4.65611 8.96744 S
atom 0.42960 8.76702 4.64936 S
atom -0.73227 9.59353 2.22452 C
atom 1.66051 8.30957 2.13738 C
atom 0.79789 9.62769 1.32150 S
atom 1.47374 7.93951 3.49709 C
atom -0.87252 9.28993 3.55554 C
atom -2.13588 9.42121 4.18528 C
atom -1.87010 9.93757 1.45101 C
atom -3.16557 9.56213 4.72219 N
atom -2.80962 10.20965 0.80973 N
atom 2.30923 6.87080 3.80330 C
atom 2.44808 6.16864 5.01452 C
atom 2.57057 5.55340 6.00150 N
atom 2.53947 7.62905 1.43079 N
atom 3.24412 6.46494 2.38189 S
atom 2.70062 8.80789 11.26453 S
atom 3.99980 9.08417 8.78466 C
atom 1.60461 7.81636 8.83787 C
atom 2.54723 8.89285 7.79193 S
atom 1.69577 7.76214 10.25895 C
atom 4.05745 9.09082 10.15732 C
atom 5.28806 9.38643 10.79704 C
atom 5.17634 9.29916 8.02598 C
atom 6.30531 9.67080 11.30032 N
atom 6.13180 9.50094 7.38269 N
atom 0.79005 6.82231 10.74148 C
atom 0.52483 6.44019 12.07020 C
atom 0.28772 6.09829 13.16224 N
atom 0.73547 7.02414 8.24525 N
atom -0.09206 6.14161 9.38687 S
atom 3.81898 2.30143 4.64548 S
atom 2.52382 2.03575 2.16132 C
atom 4.92048 3.30316 2.22456 C
atom 3.97436 2.23967 1.16873 S
atom 4.82758 3.34914 3.64593 C
atom 2.46495 2.02145 3.53381 C
atom 1.23442 1.71888 4.17046 C
atom 1.34861 1.81794 1.40101 C
atom 0.21721 1.42994 4.67124 N
atom 0.39443 1.61393 0.75648 N
atom 5.73657 4.28242 4.13520 C
atom 6.00092 4.65586 5.46655 C
atom 6.23710 4.99033 6.56108 N
atom 5.79436 4.09485 1.63810 N
atom 6.62337 4.96768 2.78598 S
