lattice_vector 5.41377632601 0.0 0.0
lattice_vector -0.0125267132085 8.974078038 0.0
lattice_vector -0.0460093777755 -0.0383767884677 10.1268845789
atom 5.64874 8.99637 2.40434 O
atom 4.85236 9.08502 1.27060 C
atom 5.09670 9.90101 0.59949 H
atom 3.93969 8.07585 1.32118 C
atom 2.77876 7.18232 0.89989 C
atom 2.93418 6.59948 -0.01762 H
atom 1.80485 7.68363 0.84104 H
atom 3.02608 6.37053 2.23877 C
atom 3.32617 5.32326 2.10517 H
atom 2.19109 6.40381 2.94965 H
atom 4.16864 7.33976 2.51832 C
atom 5.21763 7.91782 3.16442 C
atom 5.76338 7.76331 4.08645 H
atom -0.29231 -0.05701 6.75827 O
atom 0.50407 -0.14567 7.89201 C
atom 0.25973 -0.96166 8.56312 H
atom 1.41674 0.86351 7.84143 C
atom 2.57767 1.75704 8.26272 C
atom 2.42226 2.33988 9.18023 H
atom 3.55159 1.25573 8.32157 H
atom 2.33035 2.56882 6.92384 C
atom 2.03026 3.61609 7.05743 H
atom 3.16534 2.53554 6.21296 H
atom 1.18779 1.59960 6.64429 C
atom 0.13880 1.02154 5.99819 C
atom -0.40695 1.17604 5.07616 H
atom -0.27566 4.51202 1.69482 O
atom 0.52049 4.59208 2.82857 C
atom 0.27388 5.40298 3.49968 H
atom 1.43598 3.58329 2.77798 C
atom 2.59940 2.68657 3.19928 C
atom 2.44563 2.09677 4.11679 H
atom 3.57192 3.18743 3.25812 H
atom 2.35433 1.88493 1.86040 C
atom 2.05717 0.83664 1.99399 H
atom 3.18923 1.92359 1.14952 H
atom 1.20907 2.85627 1.58085 C
atom 0.15846 3.43923 0.93474 C
atom -0.38687 3.29171 0.01272 H
atom 5.63209 4.42734 7.46779 O
atom 4.83594 4.34728 6.33404 C
atom 5.08256 3.53637 5.66293 H
atom 3.92046 5.35607 6.38462 C
atom 2.75703 6.25279 5.96333 C
atom 2.91081 6.84259 5.04582 H
atom 1.78451 5.75193 5.90449 H
atom 3.00210 7.05443 7.30221 C
atom 3.29926 8.10271 7.16862 H
atom 2.16721 7.01576 8.01309 H
atom 4.14736 6.08308 7.58176 C
atom 5.19797 5.50013 8.22787 C
atom 5.74331 5.64764 9.14989 H
