lattice_vector 9.77999705981 0 0
lattice_vector -9.85202276485e-05 9.93134247165 0
lattice_vector -0.000690850119434 -0.010631894594 10.6900779055
atom 2.94978 2.17096 3.26517 S
atom 3.44454 4.24586 1.44293 C
atom 5.56349 3.19672 2.83364 C
atom 5.02827 4.71196 2.08167 S
atom 4.71080 2.12423 3.22047 C
atom 2.60240 3.28130 1.92361 C
atom 1.29223 3.13835 1.40559 C
atom 3.07725 5.03519 0.32351 C
atom 0.18522 3.01878 1.04596 N
atom 2.83399 5.73011 -0.58426 N
atom 5.47197 1.09264 3.75516 C
atom 5.03510 -0.14871 4.25077 C
atom 4.67870 -1.18564 4.65977 N
atom 6.85499 3.06191 3.06807 N
atom 7.14524 1.58885 3.78284 S
atom 6.85685 7.11180 7.39217 S
atom 6.36195 9.19240 9.20820 C
atom 4.24367 8.14454 7.81537 C
atom 4.77915 9.65931 8.56793 S
atom 5.09560 7.07048 7.43113 C
atom 7.20400 8.22654 8.72985 C
atom 8.51458 8.08676 9.24796 C
atom 6.72974 9.98327 10.32637 C
atom 9.62181 7.97125 9.60826 N
atom 6.97401 10.67890 11.23332 N
atom 4.33406 6.03989 6.89502 C
atom 4.77137 4.79684 6.40424 C
atom 5.12966 3.75885 5.99966 N
atom 2.95258 8.01150 7.57806 N
atom 2.66133 6.53827 6.86375 S
atom 7.84230 2.14892 7.39166 S
atom 8.33780 4.22792 9.20919 C
atom 10.45564 3.17992 7.81597 C
atom 9.92026 4.69499 8.56795 S
atom 9.60348 2.10616 7.43157 C
atom 7.49562 3.26220 8.73078 C
atom 6.18558 3.12107 9.24978 C
atom 7.97055 5.01828 10.32793 C
atom 5.07843 3.00582 9.61038 N
atom 7.72665 5.71408 11.23485 N
atom 10.36473 1.07501 6.89618 C
atom 9.92694 -0.16803 6.40571 C
atom 9.56779 -1.20463 5.99834 N
atom 11.74680 3.04622 7.57944 N
atom 12.03773 1.57265 6.86577 S
atom 1.96714 7.13313 3.26405 S
atom 1.47460 9.21080 1.44394 C
atom -0.64567 8.16236 2.83330 C
atom -0.10987 9.67689 2.08045 S
atom 0.20598 7.08907 3.22022 C
atom 2.31580 8.24536 1.92447 C
atom 3.62645 8.10305 1.40735 C
atom 1.84384 10.00092 0.32567 C
atom 4.73361 7.98364 1.04819 N
atom 2.08868 10.69615 -0.58145 N
atom -0.55622 6.05849 3.75548 C
atom -0.12022 4.81678 4.25101 C
atom 0.23594 3.77957 4.65953 N
atom -1.93728 8.02896 3.06793 N
atom -2.22911 6.55638 3.78313 S
