lattice_vector 12.1167429455 0.0 8.881784197e-16
lattice_vector 6.0303694983 15.4936941274 0.0
lattice_vector -0.353197743587 0.567656711666 4.30178130581
atom 3.60145 -0.18007 1.35807 S
atom 3.44353 1.65570 3.48219 C
atom 5.57458 1.83583 1.80801 C
atom 5.17599 2.04329 3.52994 S
atom 4.87921 0.96345 0.92679 C
atom 2.82708 0.74654 2.65683 C
atom 1.42924 0.54924 2.81920 C
atom 2.66311 2.42896 4.37534 C
atom 0.28036 0.43995 3.00890 N
atom 2.01544 3.10266 5.07922 N
atom 5.42925 1.06977 -0.34871 C
atom 4.98884 0.46642 -1.54252 C
atom 4.58174 0.02934 -2.54677 N
atom 6.56994 2.54886 1.31396 N
atom 6.77673 2.17977 -0.29933 S
atom 12.54000 2.38471 1.76320 S
atom 9.84231 2.28354 2.66549 C
atom 11.69844 3.53085 4.26806 C
atom 9.98810 3.07475 4.23984 S
atom 12.68709 3.28979 3.27008 C
atom 10.80038 2.01515 1.72286 C
atom 10.43257 1.36172 0.51815 C
atom 8.48209 1.94530 2.44214 C
atom 10.14510 0.84213 -0.48783 N
atom 7.33577 1.74573 2.33358 N
atom 13.89392 3.84949 3.68690 C
atom 15.13304 3.87141 3.02165 C
atom 16.17898 3.92519 2.49842 N
atom 12.08427 4.18217 5.35088 N
atom 13.69680 4.58288 5.26148 S
