# 
# This is the geometry file that corresponds to the current relaxation step.
# If you do not want this file to be written, set the "write_restart_geometry" flag to .false.
# 
lattice_vector     13.08798257     -3.49624537      0.00730598
lattice_vector      5.88788689     14.16402215      0.28487664
lattice_vector     -0.98539725      0.64676466      4.36840541
atom       4.56110128     -0.96301923      2.49709884 S
atom       3.06788958      0.31465365      4.17625650 C
atom       6.16755952      2.74535907      2.66008268 C
atom       5.25740910      3.44579064      4.07630426 S
atom       5.63618458      1.55728240      2.00318585 C
atom       3.06982726     -0.85146210      3.40336895 C
atom       2.07230317     -1.82239878      3.29496923 C
atom       1.91114622      0.83163422      4.80821962 C
atom       1.20712236     -2.60321130      3.15144385 N
atom       0.95502757      1.29189031      5.30318233 N
atom       5.80226153      1.35415019      0.61214952 C
atom       5.28001166      0.41445427     -0.29972633 C
atom       5.93259602      0.03742593     -1.49752715 N
atom       7.11879673      3.60353364      2.38399870 N
atom       8.11679046      3.43314398      1.05105710 S
atom      12.19916704     -1.30567858      2.42958476 S
atom       9.43798510     -1.45018068      2.34840152 C
atom      11.63430131      1.33244574      3.50218198 C
atom       9.92316049      1.19397186      3.95290807 S
atom      12.49587066      0.38551926      2.85025032 C
atom      10.59441377     -1.28427619      1.62535971 C
atom      10.64230446     -1.20740468      0.14993319 C
atom       8.17897543     -1.60452125      1.67833550 C
atom      10.33558862     -2.17327115     -0.62999699 N
atom       7.13820435     -1.71036083      1.15675205 N
atom      13.73778925      0.97602246      2.61958285 C
atom      14.90100773      0.42954465      2.04945127 C
atom      15.88554234      0.14059466      1.49162374 N
atom      12.13857121      2.53880424      3.73727001 N
atom      13.71362360      2.61416895      3.19479488 S
