lattice_vector 7.45197620992 0 0
lattice_vector 1.88089938448 9.63772482867 0
lattice_vector 1.20789893579 3.68188418287 14.020517712
atom 9.73939 5.53048 12.46320 S
atom 7.03613 4.75458 12.73293 C
atom 7.62726 7.41746 12.89688 C
atom 6.38839 6.25435 13.40813 S
atom 8.95339 7.11054 12.47810 C
atom 8.33620 4.45103 12.41247 C
atom 8.69140 3.12259 12.07457 C
atom 6.02318 3.77288 12.57381 C
atom 9.00856 2.01389 11.87963 N
atom 5.15005 3.00314 12.45920 N
atom 9.62460 8.28381 12.14884 C
atom 10.94794 8.41377 11.69262 C
atom 12.04649 8.50836 11.30418 N
atom 7.29104 8.69336 12.91959 N
atom 8.55909 9.64138 12.41107 S
atom 4.20551 4.83467 5.74579 S
atom 6.90253 5.58054 5.86309 C
atom 6.31404 2.93728 5.99873 C
atom 7.46400 4.11049 6.68432 S
atom 4.98428 3.25669 5.60885 C
atom 5.61118 5.88807 5.51366 C
atom 5.31179 7.12795 4.89533 C
atom 7.95795 6.46988 5.53306 C
atom 5.06432 8.16825 4.42105 N
atom 8.85465 7.17487 5.26879 N
atom 4.34118 2.11709 5.14408 C
atom 3.00790 2.00757 4.71752 C
atom 1.88857 1.94370 4.38850 N
atom 6.69153 1.68031 5.86879 N
atom 5.44468 0.77038 5.24489 S
atom 0.80111 7.79009 1.55870 S
atom 3.50429 8.56629 1.28798 C
atom 2.91335 5.90333 1.12419 C
atom 4.15243 7.06634 0.61352 S
atom 1.58717 6.21017 1.54296 C
atom 2.20422 8.86971 1.60857 C
atom 1.84897 10.19822 1.94617 C
atom 4.51698 9.54848 1.44595 C
atom 1.53193 11.30701 2.14083 N
atom 5.38996 10.31854 1.55970 N
atom 0.91601 5.03683 1.87184 C
atom -0.40740 4.90663 2.32778 C
atom -1.50598 4.81174 2.71606 N
atom 3.24957 4.62746 1.10119 N
atom 1.98165 3.67904 1.60961 S
atom 6.33544 8.48401 8.27427 S
atom 3.63843 7.73793 8.15765 C
atom 4.22665 10.38119 8.02182 C
atom 3.07656 9.20792 7.33661 S
atom 5.55657 10.06187 8.41127 C
atom 4.92992 7.43045 8.50663 C
atom 5.22985 6.19050 9.12460 C
atom 2.58330 6.84823 8.48778 C
atom 5.47842 5.15019 9.59833 N
atom 1.68685 6.14294 8.75210 N
atom 6.19965 11.20147 8.87603 C
atom 7.53289 11.31091 9.30272 C
atom 8.65221 11.37510 9.63169 N
atom 3.84907 11.63816 8.15205 N
atom 5.09602 12.54803 8.77568 S
