lattice_vector 7.81726646809 0 0
lattice_vector 0.00531158272035 11.2243779639 0
lattice_vector 0.00334761896492 0.00985082655004 11.4810111414
atom 2.53191 8.63805 10.04494 S
atom 3.87858 10.95105 9.28847 C
atom 1.70599 10.24566 7.88933 C
atom 3.37981 10.75670 7.58888 S
atom 1.36347 9.34618 8.93288 C
atom 3.58435 10.05031 10.27942 C
atom 4.12030 10.19567 11.58316 C
atom 4.59419 12.14049 9.56172 C
atom 4.59862 10.28546 12.64701 N
atom 5.15642 13.14924 9.74455 N
atom -0.00642 9.12101 8.93236 C
atom -0.77515 8.37034 9.83913 C
atom -1.43206 7.77946 10.60498 N
atom 0.72889 10.71400 7.13911 N
atom -0.70679 10.01802 7.60630 S
atom 6.43533 2.58721 1.44208 S
atom 7.78016 0.27326 2.19907 C
atom 5.60820 0.98083 3.59844 C
atom 7.28166 0.46824 3.89881 S
atom 5.26645 1.88016 2.55449 C
atom 7.48711 1.17440 1.20811 C
atom 8.02355 1.02970 -0.09549 C
atom 8.49385 -0.91731 1.92597 C
atom 8.50267 0.94196 -1.15913 N
atom 9.05494 -1.92663 1.74288 N
atom 3.89684 2.10707 2.55522 C
atom 3.12954 2.85836 1.64769 C
atom 2.47498 3.45052 0.88083 N
atom 4.63073 0.51436 4.34930 N
atom 3.19576 1.21214 3.88244 S
atom 2.52984 3.02348 7.18420 S
atom 3.87588 5.33766 7.93840 C
atom 1.70102 4.63483 9.33594 C
atom 3.37417 5.14730 9.63762 S
atom 1.36013 3.73352 8.29343 C
atom 3.58324 4.43482 6.94888 C
atom 4.12129 4.57682 5.64561 C
atom 4.59235 6.52632 7.66381 C
atom 4.60117 4.66324 4.58218 N
atom 5.15568 7.53425 7.47976 N
atom -0.00960 3.50741 8.29282 C
atom -0.77631 2.75421 7.38641 C
atom -1.43095 2.16082 6.62057 N
atom 0.72284 5.10349 10.08454 N
atom -0.71186 4.40556 9.61715 S
atom 6.44027 8.20359 4.30116 S
atom 7.78470 5.88822 3.54759 C
atom 5.61070 6.59202 2.14940 C
atom 7.28349 6.07785 1.84817 S
atom 5.27044 7.49359 3.19191 C
atom 7.49331 6.79204 4.53661 C
atom 8.03272 6.65077 5.83938 C
atom 8.49907 4.69845 3.82268 C
atom 8.51436 6.56520 6.90207 N
atom 9.05948 3.68883 4.00625 N
atom 3.90084 7.72044 3.19267 C
atom 3.13504 8.47396 4.09958 C
atom 2.48247 9.06954 4.86547 N
atom 4.63220 6.12404 1.40085 N
atom 3.19796 6.82285 1.86829 S
