lattice_vector 6.5002032663 0.0 0.0
lattice_vector 3.20910881186 5.86088158785 0.0
lattice_vector 0.989182985318 0.221526099246 13.1351446947
atom 4.41468 -0.36040 1.82030 O
atom 5.69581 0.10842 1.57760 C
atom 6.45500 -0.66017 1.50044 H
atom 5.63935 1.46611 1.50443 C
atom 6.11553 2.90707 1.36699 C
atom 6.80074 3.26180 2.14864 H
atom 6.51730 3.17170 0.38238 H
atom 4.61246 3.34002 1.59141 C
atom 4.45824 3.93928 2.49738 H
atom 4.15762 3.85371 0.73484 H
atom 4.28412 1.85508 1.70875 C
atom 3.55369 0.72290 1.90335 C
atom 2.51957 0.46327 2.09688 H
atom 3.85273 5.53060 7.82381 O
atom 2.57734 5.07078 8.10145 C
atom 1.81213 5.83754 8.11153 H
atom 2.65146 3.72804 8.31732 C
atom 2.19943 2.30254 8.61691 C
atom 1.79045 2.13222 9.62062 H
atom 1.52721 1.85587 7.87306 H
atom 3.71352 1.87574 8.45920 C
atom 4.15788 1.47217 9.37879 H
atom 3.89333 1.17754 7.63104 H
atom 4.01545 3.34298 8.17121 C
atom 4.72975 4.46130 7.86461 C
atom 5.75908 4.70728 7.63452 H
atom 6.28377 6.44282 11.31478 O
atom 5.00269 5.97397 11.55746 C
atom 4.24347 6.74257 11.63450 H
atom 5.05915 4.61629 11.63068 C
atom 4.58297 3.17533 11.76812 C
atom 3.89782 2.82056 10.98645 H
atom 4.18120 2.91070 12.75268 H
atom 6.08603 2.74240 11.54380 C
atom 6.24027 2.14315 10.63787 H
atom 6.54085 2.22873 12.40031 H
atom 6.41438 4.22734 11.42647 C
atom 7.14482 5.35952 11.23192 C
atom 8.17894 5.61917 11.03846 H
atom 6.84575 0.55180 5.31133 O
atom 8.12115 1.01162 5.03372 C
atom 8.88636 0.24487 5.02364 H
atom 8.04703 2.35436 4.81783 C
atom 8.49905 3.77986 4.51821 C
atom 8.90803 3.95016 3.51450 H
atom 9.17128 4.22654 5.26205 H
atom 6.98497 4.20667 4.67592 C
atom 6.54060 4.61021 3.75631 H
atom 6.80516 4.90489 5.50406 H
atom 6.68304 2.73942 4.96395 C
atom 5.96874 1.62112 5.27056 C
atom 4.93941 1.37514 5.50066 H
