lattice_vector 5.39080037169 0 0
lattice_vector -1.5909886443 7.56823129591 0
lattice_vector -0.00132342066597 -0.0250222451337 12.4005786815
atom 2.74409 1.88806 6.09455 O
atom 3.50361 1.12926 5.21533 C
atom 4.46151 0.80542 5.60612 H
atom 2.80083 0.99406 4.05817 C
atom 2.48258 0.60339 2.61797 C
atom 2.37664 -0.47380 2.43507 H
atom 3.15175 1.03778 1.86266 H
atom 1.10610 1.36879 2.80632 C
atom 0.21820 0.72929 2.72740 H
atom 0.96535 2.24238 2.15695 H
atom 1.56642 1.68402 4.22111 C
atom 1.54941 2.22303 5.46978 C
atom 0.88129 2.84381 6.05433 H
atom -0.85163 1.86224 12.29180 O
atom -1.60982 2.62351 11.41317 C
atom -2.56896 2.94482 11.80294 H
atom -0.90392 2.76409 10.25860 C
atom -0.58366 3.15742 8.81944 C
atom -0.47856 4.23473 8.63762 H
atom -1.25141 2.72297 8.06300 H
atom 0.79337 2.39334 9.00888 C
atom 1.68041 3.03433 8.93262 H
atom 0.93664 1.52128 8.35815 H
atom 0.33067 2.07471 10.42215 C
atom 0.34470 1.53044 11.66860 C
atom 1.01229 0.90848 12.25255 H
atom 1.05439 5.65516 6.30602 O
atom 0.29487 6.41395 7.18526 C
atom -0.66302 6.73779 6.79445 H
atom 0.99765 6.54916 8.34241 C
atom 1.31591 6.93982 9.78262 C
atom 1.42185 8.01700 9.96553 H
atom 0.64674 6.50542 10.53791 H
atom 2.69239 6.17442 9.59425 C
atom 3.58030 6.81392 9.67318 H
atom 2.83314 5.30082 10.24361 H
atom 2.23207 5.85920 8.17946 C
atom 2.24907 5.32018 6.93080 C
atom 2.91719 4.69940 6.34626 H
atom 4.65008 5.68089 0.10875 O
atom 5.40831 4.91969 0.98741 C
atom 6.36746 4.59842 0.59766 H
atom 4.70241 4.77912 2.14199 C
atom 4.38215 4.38579 3.58114 C
atom 4.27704 3.30849 3.76297 H
atom 5.04991 4.82024 4.33759 H
atom 3.00512 5.14988 3.39171 C
atom 2.11809 4.50888 3.46797 H
atom 2.86185 6.02193 4.04244 H
atom 3.46782 5.46851 1.97844 C
atom 3.45379 6.01277 0.73198 C
atom 2.78621 6.63475 0.14804 H
