lattice_vector 5.49005851063 0 0
lattice_vector 0.00217313102257 8.32534930386 0
lattice_vector 0.0413154023507 0.0156402508666 10.5717247714
atom 5.78533 1.16256 1.72005 O
atom 4.99201 1.24896 0.58398 C
atom 5.23868 2.06313 -0.08849 H
atom 4.07852 0.24053 0.63464 C
atom 2.91810 -0.65324 0.21248 C
atom 3.07554 -1.23845 -0.70318 H
atom 1.94469 -0.15142 0.14983 H
atom 3.16133 -1.46190 1.55400 C
atom 3.46106 -2.50970 1.42379 H
atom 2.32448 -1.42630 2.26259 H
atom 4.30381 -0.49276 1.83419 C
atom 5.35148 0.08618 2.48164 C
atom 5.89469 -0.06642 3.40548 H
atom -0.26560 5.33634 8.84263 O
atom 0.53142 5.42689 9.97588 C
atom 0.28686 6.24369 10.64592 H
atom 1.44595 4.41949 9.92478 C
atom 2.60539 3.52455 10.34816 C
atom 2.44706 2.94236 11.26558 H
atom 3.58003 4.02425 10.40835 H
atom 2.35819 2.71203 9.00955 C
atom 2.05675 1.66526 9.14383 H
atom 3.19383 2.74337 8.29927 H
atom 1.21704 3.68208 8.72855 C
atom 0.16616 4.25765 8.08327 C
atom -0.38036 4.10090 7.16216 H
atom -0.27269 1.17340 6.99650 O
atom 0.52008 1.25657 5.85970 C
atom 0.27287 2.06847 5.18492 H
atom 1.43554 0.25027 5.91437 C
atom 2.59665 -0.64393 5.49476 C
atom 2.43989 -1.23133 4.58057 H
atom 3.56920 -0.14086 5.43158 H
atom 2.35403 -1.44876 6.83872 C
atom 2.05374 -2.49673 6.71113 H
atom 3.19123 -1.41227 7.54678 H
atom 1.21179 -0.47893 7.11677 C
atom 0.16315 0.10083 7.76201 C
atom -0.37930 -0.05065 8.68633 H
atom 5.81743 5.33507 3.56877 O
atom 5.02452 5.41768 4.70540 C
atom 5.27369 6.22747 5.38234 H
atom 4.10719 4.41308 4.64872 C
atom 2.94690 3.51769 5.06823 C
atom 3.10649 2.92762 5.98042 H
atom 1.97382 4.01941 5.13547 H
atom 3.18752 2.71589 3.72201 C
atom 3.48683 1.66729 3.84634 H
atom 2.34953 2.75592 3.01519 H
atom 4.33009 3.68572 3.44522 C
atom 5.38015 4.26404 2.80127 C
atom 5.92213 4.11385 1.87639 H
