lattice_vector 5.49005851063 0.0 0.0
lattice_vector 0.00217313102257 8.32534930386 0.0
lattice_vector 0.0413154023507 0.0156402508666 10.5717247714
atom 5.22143 0.84275 -0.14369 O
atom 5.71985 0.77453 1.15030 C
atom 6.68629 1.24421 1.29633 H
atom 4.81408 0.10113 1.91192 C
atom 4.18433 -0.54020 3.14307 C
atom 3.91124 0.14918 3.95293 H
atom 4.74672 -1.38099 3.56742 H
atom 2.97610 -0.95733 2.20556 C
atom 2.00589 -0.51355 2.46327 H
atom 2.84285 -2.04051 2.09310 H
atom 3.72351 -0.26412 1.07250 C
atom 3.99180 0.19960 -0.17848 C
atom 3.51575 0.17942 -1.15050 H
atom 0.29814 5.02148 10.70636 O
atom -0.20032 4.94943 9.41238 C
atom -1.16651 5.41867 9.26635 H
atom 0.70510 4.27378 8.65076 C
atom 1.33451 3.62880 7.41960 C
atom 1.60796 4.31579 6.60975 H
atom 0.77168 2.78675 6.99525 H
atom 2.54253 3.21444 8.35712 C
atom 3.51297 3.65746 8.09940 H
atom 2.67521 2.13160 8.46958 H
atom 1.79548 3.91101 9.49018 C
atom 1.52744 4.37843 10.74116 C
atom 2.00347 4.36113 11.71318 H
atom 5.24426 5.01366 5.42050 O
atom 5.73257 4.94161 4.12652 C
atom 6.69787 5.41085 3.98048 H
atom 4.82084 4.26596 3.36489 C
atom 4.18147 3.62098 2.13374 C
atom 3.90205 4.30797 1.32389 H
atom 4.74055 2.77893 1.70939 H
atom 2.98057 3.20662 3.07126 C
atom 2.00834 3.64964 2.81354 H
atom 2.84820 2.12378 3.18371 H
atom 3.73683 3.90319 4.20432 C
atom 4.01490 4.37061 5.45530 C
atom 3.54645 4.35331 6.42732 H
atom 0.27531 0.85057 5.14218 O
atom -0.21304 0.78235 6.43616 C
atom -1.17809 1.25203 6.58220 H
atom 0.69834 0.10895 7.19778 C
atom 1.33737 -0.53238 8.42894 C
atom 1.61715 0.15700 9.23879 H
atom 0.77786 -1.37317 8.85329 H
atom 2.53806 -0.94951 7.49142 C
atom 3.51052 -0.50573 7.74914 H
atom 2.66986 -2.03269 7.37896 H
atom 1.78216 -0.25630 6.35836 C
atom 1.50433 0.20742 5.10738 C
atom 1.97277 0.18724 4.13536 H
