lattice_vector 5.37812703695 0 0
lattice_vector 0.188440451157 6.90174624186 0
lattice_vector 0.810730735424 0.10744888846 13.4620199187
atom 3.59001 8.46383 10.93704 O
atom 2.88628 7.27022 10.81824 C
atom 1.95077 7.33469 10.27708 H
atom 3.59025 6.30626 11.46920 C
atom 3.96071 4.92455 11.98639 C
atom 4.16592 4.18849 11.19923 H
atom 3.26948 4.48992 12.72000 H
atom 5.25561 5.59653 12.60787 C
atom 6.20707 5.22731 12.20493 H
atom 5.28775 5.58566 13.70442 H
atom 4.76368 6.90554 12.00671 C
atom 4.74804 8.22154 11.66741 C
atom 5.39765 9.08041 11.78740 H
atom 6.01037 4.98497 9.25482 O
atom 6.66756 3.76710 9.38768 C
atom 7.60017 3.80026 9.93732 H
atom 5.93429 2.82494 8.73573 C
atom 5.51944 1.45547 8.21578 C
atom 5.27362 0.72870 9.00008 H
atom 6.20413 0.99210 7.49354 H
atom 4.26005 2.17362 7.57452 C
atom 3.28852 1.83932 7.95974 H
atom 4.24665 2.16446 6.47780 H
atom 4.78999 3.46477 8.18234 C
atom 4.85104 4.78170 8.51446 C
atom 4.23497 5.66364 8.38389 H
atom 2.78741 -1.45481 2.52463 O
atom 3.49090 -0.26111 2.64392 C
atom 4.42639 -0.32564 3.18511 H
atom 2.78689 0.70292 1.99310 C
atom 2.41634 2.08469 1.47615 C
atom 2.21083 2.82047 2.26350 H
atom 3.10765 2.51967 0.74282 H
atom 1.12164 1.41268 0.85430 C
atom 0.17004 1.78174 1.25706 H
atom 1.08975 1.42373 -0.24226 H
atom 1.61358 0.10362 1.45533 C
atom 1.62933 -1.21245 1.79436 C
atom 0.97988 -2.07139 1.67405 H
atom 0.36711 2.02417 4.20715 O
atom -0.29020 3.24198 4.07432 C
atom -1.22287 3.20880 3.52480 H
atom 0.44309 4.18422 4.72612 C
atom 0.85793 5.55378 5.24596 C
atom 1.10384 6.28041 4.46157 H
atom 0.17319 6.01733 5.96803 H
atom 2.11725 4.83567 5.88741 C
atom 3.08887 5.17006 5.50251 H
atom 2.13032 4.84472 6.98411 H
atom 1.58745 3.54450 5.27948 C
atom 1.52646 2.22758 4.94745 C
atom 2.14268 1.34575 5.07787 H
