lattice_vector 6.14883756651 0.0 0.0
lattice_vector -1.43363667704 6.99176122875 0.0
lattice_vector -0.00737859780845 -1.6162333539 11.8658893167
atom 4.75037 0.97577 9.64041 O
atom 5.36323 1.06258 8.40095 C
atom 6.44545 1.04824 8.42874 H
atom 4.38950 1.13574 7.45286 C
atom 3.74631 1.28877 6.08066 C
atom 3.91057 0.46014 5.37931 H
atom 3.95434 2.24258 5.57694 H
atom 2.34878 1.24495 6.81636 C
atom 1.72088 0.38878 6.54051 H
atom 1.76518 2.17027 6.72295 H
atom 3.13114 1.09762 8.12066 C
atom 3.37700 1.00338 9.45739 C
atom 2.80332 0.96696 10.37537 H
atom 2.30789 5.06493 3.10177 O
atom 2.93292 4.94016 4.33016 C
atom 4.01459 4.96425 4.29230 H
atom 1.96877 4.84241 5.28630 C
atom 1.34087 4.75546 6.67057 C
atom 1.52149 3.82474 7.22374 H
atom 1.54716 5.61818 7.31958 H
atom -0.06478 4.80469 5.95154 C
atom -0.65493 3.88955 6.08048 H
atom -0.67772 5.67730 6.20799 H
atom 0.70378 4.90796 4.63506 C
atom 0.93620 5.05027 3.29958 C
atom 0.35265 5.15519 2.39337 H
atom 1.67456 1.73886 3.70436 O
atom 2.28904 1.83440 2.46629 C
atom 3.37118 1.81331 2.49480 H
atom 1.31665 1.92210 1.51803 C
atom 0.67559 2.09321 0.14684 C
atom 0.83619 1.27169 -0.56355 H
atom 0.88931 3.05137 -0.34601 H
atom -0.72299 2.04864 0.88076 C
atom -1.35417 1.19795 0.59564 H
atom -1.30297 2.97705 0.79581 H
atom 0.05733 1.88448 2.18436 C
atom 0.30133 1.77605 3.52029 C
atom -0.27368 1.73415 4.43721 H
atom 5.37382 4.29904 9.03948 O
atom 6.00042 4.15630 10.26524 C
atom 7.08208 4.18250 10.22648 H
atom 5.03750 4.04346 11.22093 C
atom 4.41116 3.93685 12.60468 C
atom 4.59295 2.99879 13.14499 H
atom 4.61769 4.79073 13.26505 H
atom 3.00468 3.99432 11.88813 C
atom 2.41708 3.07601 12.00510 H
atom 2.38986 4.86147 12.15790 H
atom 3.77151 4.11777 10.57222 C
atom 4.00237 4.28066 9.23875 C
atom 3.41745 4.39909 8.33509 H
