lattice_vector 5.37356667088 0.0 0.0
lattice_vector -0.0202752546269 9.31603414221 0.0
lattice_vector -0.092039775447 -0.0668501015181 9.89240164148
atom -0.98183 3.84161 9.61167 O
atom -0.55823 3.01579 8.58020 C
atom -1.06021 3.16809 7.63256 H
atom 0.44264 2.22896 9.05936 C
atom 1.55848 1.19444 9.06049 C
atom 2.40402 1.42605 8.40035 H
atom 1.25000 0.15425 8.90161 H
atom 1.79590 1.56829 10.57997 C
atom 2.77953 2.01201 10.78016 H
atom 1.60732 0.74610 11.28237 H
atom 0.65417 2.56914 10.42525 C
atom -0.22663 3.55672 10.74158 C
atom -0.45660 4.17277 11.60221 H
atom 4.76859 5.22696 5.86168 O
atom 4.02248 5.52077 4.72820 C
atom 4.26070 4.91326 3.86365 H
atom 3.13880 6.50558 5.04535 C
atom 1.99720 7.50644 4.88983 C
atom 1.01557 7.06360 4.67749 H
atom 2.19087 8.33503 4.19625 H
atom 2.22127 7.86726 6.41445 C
atom 1.37015 7.62798 7.06484 H
atom 2.52667 8.90651 6.58594 H
atom 3.33857 6.83408 6.41597 C
atom 4.33583 6.04348 6.89680 C
atom 4.83160 5.88520 7.84673 H
atom 4.83377 8.62384 0.90896 O
atom 4.07027 8.34859 -0.21750 C
atom 4.29464 8.97154 -1.07482 H
atom 3.19457 7.35536 0.09588 C
atom 2.05508 6.35212 -0.06009 C
atom 1.06885 6.79436 -0.24999 H
atom 2.24140 5.53688 -0.77135 H
atom 2.30446 5.96533 1.45439 C
atom 1.46294 6.18915 2.12214 H
atom 2.61616 4.92466 1.60291 H
atom 3.41745 7.00269 1.45693 C
atom 4.42055 7.78697 1.93566 C
atom 4.92850 7.93258 2.88118 H
atom -0.89252 0.63699 4.63872 O
atom -0.47640 1.47619 3.61492 C
atom -0.98414 1.33460 2.66848 H
atom 0.52657 2.25809 4.09753 C
atom 1.64166 3.29319 4.10388 C
atom 2.48425 3.06812 3.43786 H
atom 1.33297 4.33483 3.95602 H
atom 1.88686 2.90358 5.61824 C
atom 2.87247 2.46079 5.81037 H
atom 1.69869 3.71794 6.33012 H
atom 0.74677 1.90155 5.45801 C
atom -0.13038 0.90824 5.76723 C
atom -0.35625 0.28242 6.62211 H
