lattice_vector 8.13098033606 0 0
lattice_vector -0.167302282991 8.76977061478 0
lattice_vector -0.0204466461565 -3.21328345875 14.5427224298
atom 3.24977 8.44076 7.41024 S
atom 4.99444 7.54725 5.35308 C
atom 3.92062 5.67018 7.05239 C
atom 4.89591 5.79803 5.57516 S
atom 3.23470 6.71070 7.74156 C
atom 4.37440 8.55442 6.04840 C
atom 4.61053 9.90113 5.66782 C
atom 5.83572 7.87681 4.25682 C
atom 4.81998 11.00969 5.35789 N
atom 6.51928 8.11509 3.33853 N
atom 2.50315 6.16274 8.78763 C
atom 1.65352 6.79508 9.70780 C
atom 0.91891 7.27629 10.47991 N
atom 3.77743 4.44254 7.52266 N
atom 2.76912 4.44300 8.84466 S
atom 4.43902 2.40821 14.67536 S
atom 2.85380 1.42646 12.53242 C
atom 4.00016 -0.39811 14.24299 C
atom 3.06949 -0.31444 12.73379 S
atom 4.57031 0.67852 14.97995 C
atom 3.36722 2.46399 13.26827 C
atom 3.05555 3.79680 12.89336 C
atom 2.04673 1.71228 11.39900 C
atom 2.78681 4.89454 12.59043 N
atom 1.39647 1.90889 10.44751 N
atom 5.29516 0.17095 16.05077 C
atom 6.05018 0.85984 17.01298 C
atom 6.71076 1.39880 17.81325 N
atom 4.22273 -1.62020 14.69718 N
atom 5.17103 -1.56603 16.06258 S
atom 7.41501 4.06104 7.39812 S
atom 9.14734 3.15606 5.33592 C
atom 8.06621 1.28607 7.04013 C
atom 9.04187 1.40774 5.56245 S
atom 7.39244 2.33178 7.73270 C
atom 8.53460 4.16744 6.03164 C
atom 8.77411 5.51237 5.64692 C
atom 9.98505 3.47988 4.23500 C
atom 8.98587 6.61952 5.33337 N
atom 10.66288 3.71445 3.31147 N
atom 6.66330 1.79069 8.78408 C
atom 5.83230 2.43505 9.71325 C
atom 5.11537 2.93089 10.49279 N
atom 7.91455 0.05943 7.51071 N
atom 6.91438 0.06842 8.83898 S
atom 0.35896 6.82819 14.67012 S
atom -1.30802 5.86425 12.58224 C
atom -0.18594 4.03223 14.29915 C
atom -1.12559 4.12051 12.79570 S
atom 0.42965 5.10163 15.00901 C
atom -0.74692 6.89603 13.29073 C
atom -1.03593 8.23266 12.91078 C
atom -2.14602 6.16142 11.47441 C
atom -1.28677 9.33351 12.60379 N
atom -2.82456 6.37489 10.54654 N
atom 1.14845 4.58926 16.08151 C
atom 1.93311 5.27029 17.02491 C
atom 2.61645 5.80427 17.80922 N
atom -0.00042 2.81197 14.77425 N
atom 0.96590 2.85859 16.12697 S
