lattice_vector 5.37812703695 0.0 0.0
lattice_vector 0.188440451157 6.90174624186 0.0
lattice_vector 0.810730735424 0.10744888846 13.4620199187
atom 3.57577 8.58341 11.13624 O
atom 2.87204 7.38980 11.01744 C
atom 1.93654 7.45427 10.47628 H
atom 3.57601 6.42584 11.66840 C
atom 3.94647 5.04413 12.18560 C
atom 4.15169 4.30807 11.39843 H
atom 3.25524 4.60950 12.91920 H
atom 5.24138 5.71611 12.80707 C
atom 6.19284 5.34690 12.40414 H
atom 5.27352 5.70524 13.90362 H
atom 4.74945 7.02512 12.20591 C
atom 4.73381 8.34112 11.86662 C
atom 5.38341 9.19999 11.98660 H
atom 2.75582 -1.57422 2.32460 O
atom 3.45955 -0.38061 2.44340 C
atom 4.39506 -0.44508 2.98456 H
atom 2.75558 0.58335 1.79244 C
atom 2.38512 1.96505 1.27525 C
atom 2.17991 2.70111 2.06241 H
atom 3.07635 2.39969 0.54164 H
atom 1.09022 1.29307 0.65377 C
atom 0.13876 1.66229 1.05671 H
atom 1.05808 1.30395 -0.44278 H
atom 1.58215 -0.01593 1.25493 C
atom 1.59779 -1.33193 1.59423 C
atom 0.94818 -2.19080 1.47424 H
atom 6.03145 5.11593 9.05561 O
atom 6.67005 3.92421 9.17441 C
atom 7.60931 3.99732 9.71557 H
atom 5.91316 2.94986 8.52345 C
atom 5.46702 1.55990 8.00626 C
atom 5.22196 0.83641 8.79342 H
atom 6.13420 1.11356 7.27265 H
atom 4.20854 2.22196 7.38478 C
atom 3.23710 1.85918 7.78772 H
atom 4.17533 2.19358 6.28823 H
atom 4.77221 3.54056 7.98594 C
atom 4.85986 4.86198 8.32524 C
atom 4.25711 5.71893 8.20525 H
atom 0.30015 1.89325 4.40523 O
atom -0.33845 3.08497 4.28643 C
atom -1.27772 3.01186 3.74527 H
atom 0.41844 4.05932 4.93739 C
atom 0.86457 5.44928 5.45459 C
atom 1.10964 6.17278 4.66742 H
atom 0.19740 5.89563 6.18819 H
atom 2.12305 4.78723 6.07606 C
atom 3.09450 5.15001 5.67313 H
atom 2.15626 4.81561 7.17261 H
atom 1.55938 3.46862 5.47490 C
atom 1.47173 2.14721 5.13561 C
atom 2.07449 1.29025 5.25560 H
