lattice_vector 4.27292987587 0.0 0.0
lattice_vector 0.0319492762441 9.83783823554 0.0
lattice_vector 0.269066015915 0.0237379845285 11.9159661484
atom 1.13009 10.37752 5.98130 O
atom 1.13160 9.03584 5.63039 C
atom 0.51570 8.39688 6.25140 H
atom 1.90778 8.89220 4.52172 C
atom 2.60468 8.20890 3.35486 C
atom 1.94105 7.70742 2.63752 H
atom 3.40231 7.51032 3.64151 H
atom 3.11845 9.64985 2.92658 C
atom 2.72557 10.01864 1.97064 H
atom 4.20799 9.77163 2.93485 H
atom 2.39236 10.18031 4.15903 C
atom 1.90244 11.07303 5.06153 C
atom 1.97937 12.13737 5.25149 H
atom 3.45953 5.44890 5.93806 O
atom 3.45726 4.11038 6.30111 C
atom 4.07495 3.46602 5.68746 H
atom 2.67967 3.97740 7.40992 C
atom 1.98208 3.30522 8.58273 C
atom 2.64673 2.81396 9.30634 H
atom 1.18743 2.60069 8.30297 H
atom 1.46462 4.74938 8.99488 C
atom 1.85345 5.12812 9.94859 H
atom 0.37487 4.86909 8.98157 H
atom 2.19361 5.26860 7.75939 C
atom 2.68558 6.15299 6.84980 C
atom 2.60863 7.21538 6.64893 H
atom 3.40109 10.38939 11.93928 O
atom 3.40260 9.04771 11.58837 C
atom 2.78670 8.40875 12.20938 H
atom 4.17877 8.90407 10.47970 C
atom 4.87568 8.22077 9.31284 C
atom 4.21205 7.71929 8.59551 H
atom 5.67331 7.52219 9.59949 H
atom 5.38945 9.66172 8.88457 C
atom 4.99657 10.03051 7.92862 H
atom 6.47898 9.78350 8.89284 H
atom 4.66335 10.19218 10.11701 C
atom 4.17344 11.08490 11.01952 C
atom 4.25037 12.14924 11.20948 H
atom 1.18853 5.43703 -0.01992 O
atom 1.18626 4.09851 0.34313 C
atom 1.80395 3.45415 -0.27052 H
atom 0.40867 3.96553 1.45194 C
atom -0.28891 3.29335 2.62475 C
atom 0.37573 2.80209 3.34836 H
atom -1.08357 2.58882 2.34498 H
atom -0.80638 4.73751 3.03690 C
atom -0.41755 5.11626 3.99061 H
atom -1.89613 4.85722 3.02359 H
atom -0.07739 5.25673 1.80140 C
atom 0.41459 6.14112 0.89181 C
atom 0.33763 7.20352 0.69095 H
