lattice_vector 5.49005851063 0.0 0.0
lattice_vector 0.00217313102257 8.32534930386 0.0
lattice_vector 0.0413154023507 0.0156402508666 10.5717247714
atom 5.55309 1.37445 1.79746 O
atom 4.44973 1.52967 0.96924 C
atom 4.28946 2.53675 0.60041 H
atom 3.84889 0.31449 0.84164 C
atom 2.84154 -0.73638 0.38934 C
atom 1.81202 -0.59364 0.74347 H
atom 2.82205 -0.92600 -0.69092 H
atom 3.68197 -1.78443 1.23078 C
atom 3.14947 -2.24815 2.07106 H
atom 4.14438 -2.57932 0.63245 H
atom 4.59726 -0.62501 1.60627 C
atom 5.63299 0.04333 2.18293 C
atom 6.47213 -0.19566 2.82370 H
atom -0.03325 5.54744 8.76521 O
atom 1.07020 5.70510 9.59344 C
atom 1.23099 6.71327 9.96227 H
atom 1.67041 4.49030 9.72104 C
atom 2.67720 3.44077 10.17334 C
atom 3.70679 3.58246 9.81921 H
atom 2.69659 3.25434 11.25360 H
atom 1.83622 2.39023 9.33190 C
atom 2.36849 1.92402 8.49162 H
atom 1.37340 1.59711 9.93023 H
atom 0.92154 3.54854 8.95641 C
atom -0.11385 4.21518 8.37974 C
atom -0.95311 3.97429 7.73898 H
atom 5.56075 5.53962 3.47935 O
atom 4.46386 5.69728 4.30758 C
atom 4.30648 6.70545 4.67641 H
atom 3.86402 4.48248 4.43518 C
atom 2.86021 3.43295 4.88748 C
atom 1.82792 3.57464 4.53335 H
atom 2.84916 3.24652 5.96773 H
atom 3.69406 2.38241 4.04604 C
atom 3.15499 1.91620 3.20576 H
atom 4.16115 1.58929 4.64436 H
atom 4.60641 3.54072 3.67054 C
atom 5.63764 4.20736 3.09388 C
atom 6.47177 3.96647 2.45311 H
atom -0.04091 1.38227 7.08333 O
atom 1.05607 1.53749 6.25510 C
atom 1.21397 2.54457 5.88627 H
atom 1.65527 0.32231 6.12750 C
atom 2.65853 -0.72856 5.67520 C
atom 3.69089 -0.58582 6.02933 H
atom 2.66948 -0.91818 4.59494 H
atom 1.82413 -1.77661 6.51664 C
atom 2.36296 -2.24033 7.35692 H
atom 1.35663 -2.57150 5.91831 H
atom 0.91239 -0.61719 6.89214 C
atom -0.11849 0.05115 7.46880 C
atom -0.95274 -0.18784 8.10956 H
