lattice_vector 6.30230593314 0 0
lattice_vector 0.00729237311781 12.1230598115 0
lattice_vector 0.00433626746225 0.00454457878107 13.4262287527
atom 3.25310 3.89500 7.68256 S
atom 5.47753 5.05651 8.94033 C
atom 5.74380 2.58253 7.87963 C
atom 6.24623 3.50077 9.31395 S
atom 4.50397 2.75432 7.20508 C
atom 4.28061 5.21202 8.29024 C
atom 3.75196 6.50330 8.05538 C
atom 6.19190 6.19163 9.40652 C
atom 3.30147 7.56394 7.85545 N
atom 6.77330 7.11155 9.83731 N
atom 4.43137 1.89046 6.12262 C
atom 3.40077 1.71403 5.18217 C
atom 2.56311 1.50600 4.39336 N
atom 6.58467 1.68890 7.39014 N
atom 5.89944 0.94862 6.06567 S
atom 0.10348 8.23347 5.73877 S
atom 2.32566 7.06918 4.47976 C
atom 2.59594 9.54256 5.54071 C
atom 3.09678 8.62367 4.10635 S
atom 1.35635 9.37206 6.21593 C
atom 1.12876 6.91508 5.13031 C
atom 0.59795 5.62459 5.36455 C
atom 3.03790 5.93323 4.01249 C
atom 0.14497 4.56502 5.56462 N
atom 3.61535 5.01273 3.57769 N
atom 1.28560 10.23554 7.29879 C
atom 0.25565 10.41231 8.23988 C
atom -0.58182 10.62100 9.02870 N
atom 3.43823 10.43502 6.02987 N
atom 2.75477 11.17563 7.35508 S
atom 3.24900 2.16870 0.96674 S
atom 5.47090 1.00579 2.22784 C
atom 5.74063 3.47950 1.16709 C
atom 6.24137 2.56061 2.60160 S
atom 4.50151 3.30837 0.49111 C
atom 4.27456 0.85102 1.57650 C
atom 3.74474 -0.43973 1.34145 C
atom 6.18393 -0.12960 2.69548 C
atom 3.29244 -1.49961 1.14148 N
atom 6.76540 -1.04887 3.12754 N
atom 4.43082 4.17189 -0.59167 C
atom 3.40153 4.34733 -1.53375 C
atom 2.56211 4.55733 -2.32014 N
atom 6.58259 4.37257 0.67837 N
atom 5.89945 5.11285 -0.64717 S
atom 0.10663 9.95675 12.45195 S
atom 2.32931 11.11939 11.19183 C
atom 2.59797 8.64565 12.25232 C
atom 3.09943 9.56445 10.81811 S
atom 1.35873 8.81681 12.92797 C
atom 1.13286 11.27431 11.84299 C
atom 0.60363 12.56528 12.07801 C
atom 3.04239 12.25485 10.72458 C
atom 0.15206 13.62560 12.27724 N
atom 3.62289 13.17455 10.29210 N
atom 1.28762 7.95309 14.01060 C
atom 0.25769 7.77698 14.95183 C
atom -0.57970 7.57065 15.74136 N
atom 3.43967 7.75236 12.74103 N
atom 2.75613 7.01184 14.06620 S
