lattice_vector 5.37812703695 0.0 0.0
lattice_vector 0.188440451157 6.90174624186 0.0
lattice_vector 0.810730735424 0.10744888846 13.4620199187
atom 1.49442 2.61223 0.80136 O
atom 0.79070 1.41862 0.68256 C
atom -0.14481 1.48309 0.14140 H
atom 1.49466 0.45466 1.33352 C
atom 1.86512 -0.92705 1.85071 C
atom 2.07034 -1.66311 1.06355 H
atom 1.17390 -1.36169 2.58432 H
atom 3.16003 -0.25507 2.47219 C
atom 4.11149 -0.62429 2.06925 H
atom 3.19217 -0.26595 3.56874 H
atom 2.66810 1.05393 1.87103 C
atom 2.65246 2.36993 1.53173 C
atom 3.30206 3.22880 1.65172 H
atom 1.79071 6.04943 5.92936 O
atom 2.44789 4.83155 6.06223 C
atom 3.38050 4.86472 6.61187 H
atom 1.71462 3.88940 5.41027 C
atom 1.29978 2.51992 4.89032 C
atom 1.05395 1.79316 5.67462 H
atom 1.98446 2.05655 4.16809 H
atom 0.04039 3.23808 4.24906 C
atom -0.93114 2.90378 4.63429 H
atom 0.02699 3.22892 3.15234 H
atom 0.57032 4.52923 4.85689 C
atom 0.63137 5.84615 5.18900 C
atom 0.01530 6.72809 5.05843 H
atom 4.88300 4.39679 12.66031 O
atom 5.58648 5.59049 12.77960 C
atom 6.52197 5.52597 13.32079 H
atom 4.88247 6.55452 12.12878 C
atom 4.51192 7.93629 11.61183 C
atom 4.30641 8.67207 12.39918 H
atom 5.20323 8.37127 10.87850 H
atom 3.21722 7.26429 10.98997 C
atom 2.26563 7.63334 11.39274 H
atom 3.18534 7.27533 9.89342 H
atom 3.70916 5.95523 11.59101 C
atom 3.72492 4.63915 11.93004 C
atom 3.07546 3.78021 11.80973 H
atom 4.58677 0.95972 7.53261 O
atom 3.92947 2.17753 7.39977 C
atom 2.99680 2.14434 6.85026 H
atom 4.66276 3.11977 8.05158 C
atom 5.07759 4.48932 8.57142 C
atom 5.32351 5.21596 7.78703 H
atom 4.39285 4.95287 9.29349 H
atom 6.33692 3.77122 9.21286 C
atom 7.30854 4.10561 8.82796 H
atom 6.34999 3.78027 10.30957 H
atom 5.80712 2.48004 8.60493 C
atom 5.74613 1.16313 8.27290 C
atom 6.36234 0.28129 8.40333 H
