lattice_vector 6.11804118955 0 0
lattice_vector 0.00530546832785 11.6912232401 0
lattice_vector 2.56814859642 0.0158388833339 13.9425961505
atom 5.26721 8.72430 7.71222 S
atom 7.07952 7.71342 5.77739 C
atom 4.93517 9.16555 4.89598 C
atom 6.15568 8.01908 4.31266 S
atom 4.56973 9.41932 6.24946 C
atom 6.75559 7.99979 7.08047 C
atom 7.68199 7.66110 8.09856 C
atom 8.30982 7.06545 5.48960 C
atom 8.45589 7.37141 8.92690 N
atom 9.30657 6.51359 5.22487 N
atom 3.48694 10.29414 6.27456 C
atom 2.79211 10.77356 7.39997 C
atom 2.19245 11.17874 8.31980 N
atom 4.23965 9.78150 3.96053 N
atom 3.03514 10.71478 4.63132 S
atom 2.14156 2.86776 -0.74050 S
atom 0.32675 1.86236 1.19488 C
atom 2.47057 3.31615 2.07508 C
atom 1.24867 2.17206 2.65997 S
atom 2.83758 3.56659 0.72133 C
atom 0.65235 2.14519 -0.10858 C
atom -0.27345 1.80471 -1.12674 C
atom -0.90421 1.21571 1.48270 C
atom -1.04742 1.51329 -1.95441 N
atom -1.90188 0.66508 1.74649 N
atom 3.92090 4.44069 0.69546 C
atom 4.61790 4.91722 -0.42993 C
atom 5.21748 5.32242 -1.34981 N
atom 3.16548 3.93378 3.00989 N
atom 4.37130 4.86474 2.33819 S
atom 3.42427 2.98279 6.23045 S
atom 1.61197 3.99363 8.16531 C
atom 3.75636 2.54155 9.04668 C
atom 2.53590 3.68806 9.63001 S
atom 4.12178 2.28775 7.69319 C
atom 1.93587 3.70724 6.86222 C
atom 1.00942 4.04589 5.84415 C
atom 0.38166 4.64159 8.45309 C
atom 0.23556 4.33556 5.01577 N
atom -0.61510 5.19345 8.71781 N
atom 5.20456 1.41293 7.66808 C
atom 5.89938 0.93352 6.54266 C
atom 6.49893 0.52836 5.62274 N
atom 4.45190 1.92561 9.98212 N
atom 5.65642 0.99234 9.31133 S
atom 6.54995 8.83932 14.68303 S
atom 8.36476 9.84467 12.74764 C
atom 6.22089 8.39095 11.86746 C
atom 7.44275 9.53508 11.28256 S
atom 5.85391 8.14047 13.22122 C
atom 8.03919 9.56182 14.05109 C
atom 8.96502 9.90227 15.06924 C
atom 9.59573 10.49133 12.45981 C
atom 9.73896 10.19367 15.89694 N
atom 10.59340 11.04196 12.19603 N
atom 4.77059 7.26636 13.24709 C
atom 4.07361 6.78982 14.37248 C
atom 3.47406 6.38466 15.29240 N
atom 5.52597 7.77334 10.93265 N
atom 4.32014 6.84237 11.60435 S
