lattice_vector 5.37812703695 0.0 0.0
lattice_vector 0.188440451157 6.90174624186 0.0
lattice_vector 0.810730735424 0.10744888846 13.4620199187
atom 3.83707 1.81329 9.72974 O
atom 3.13334 0.61967 9.61094 C
atom 2.19783 0.68415 9.06978 H
atom 3.83731 -0.34429 10.26190 C
atom 4.20777 -1.72599 10.77909 C
atom 4.41299 -2.46205 9.99193 H
atom 3.51654 -2.16063 11.51270 H
atom 5.50268 -1.05401 11.40057 C
atom 6.45414 -1.42323 10.99763 H
atom 5.53482 -1.06489 12.49712 H
atom 5.01075 0.25499 10.79941 C
atom 4.99511 1.57099 10.46011 C
atom 5.64471 2.42986 10.58010 H
atom 6.43900 4.71907 8.04821 O
atom 7.09618 3.50119 8.18107 C
atom 8.02879 3.53435 8.73071 H
atom 6.36291 2.55903 7.52912 C
atom 5.94807 1.18956 7.00917 C
atom 5.70224 0.46280 7.79347 H
atom 6.63276 0.72619 6.28693 H
atom 4.68868 1.90772 6.36791 C
atom 3.71715 1.57341 6.75313 H
atom 4.67528 1.89855 5.27119 H
atom 5.21861 3.19887 6.97573 C
atom 5.27966 4.51579 7.30785 C
atom 4.66359 5.39773 7.17728 H
atom 3.22303 -1.20327 1.31744 O
atom 3.92652 -0.00957 1.43673 C
atom 4.86200 -0.07410 1.97792 H
atom 3.22250 0.95446 0.78591 C
atom 2.85196 2.33623 0.26897 C
atom 2.64645 3.07201 1.05631 H
atom 3.54326 2.77120 -0.46437 H
atom 1.55726 1.66422 -0.35289 C
atom 0.60566 2.03327 0.04987 H
atom 1.52537 1.67527 -1.44945 H
atom 2.04919 0.35516 0.24815 C
atom 2.06495 -0.96091 0.58717 C
atom 1.41549 -1.81985 0.46687 H
atom 0.79572 1.75824 3.00054 O
atom 0.13841 2.97605 2.86771 C
atom -0.79426 2.94287 2.31819 H
atom 0.87170 3.91829 3.51951 C
atom 1.28654 5.28784 4.03935 C
atom 1.53245 6.01448 3.25496 H
atom 0.60180 5.75140 4.76142 H
atom 2.54586 4.56974 4.68080 C
atom 3.51748 4.90413 4.29589 H
atom 2.55893 4.57879 5.77750 H
atom 2.01606 3.27856 4.07286 C
atom 1.95507 1.96165 3.74083 C
atom 2.57129 1.07981 3.87126 H
