lattice_vector 5.39370201674 0.0 0.0
lattice_vector -1.20810854808 7.87043487728 0.0
lattice_vector -0.373085055458 -0.112713010825 12.409820765
atom 0.82454 2.65180 9.59294 O
atom -0.42068 2.53271 10.19635 C
atom -1.10249 1.85326 9.69605 H
atom -0.42512 3.32080 11.30596 C
atom -0.93551 3.97439 12.58315 C
atom -1.18575 3.28787 13.40262 H
atom -1.76074 4.68477 12.44687 H
atom 0.49180 4.65285 12.70576 C
atom 1.07221 4.33038 13.58220 H
atom 0.49467 5.74932 12.67442 H
atom 0.84856 3.94822 11.40153 C
atom 1.59562 3.52925 10.34310 C
atom 2.60217 3.68520 9.97081 H
atom 2.02158 6.71807 3.24039 O
atom 3.26643 6.60275 2.63568 C
atom 3.94801 5.91898 3.13038 H
atom 3.27124 7.39947 1.53212 C
atom 3.78196 8.06440 0.26082 C
atom 4.03160 7.38640 -0.56570 H
atom 4.60795 8.77247 0.40396 H
atom 2.35503 8.74479 0.14463 C
atom 1.77438 8.43128 -0.73489 H
atom 2.35271 9.84080 0.18707 H
atom 1.99790 8.02815 1.44197 C
atom 1.25093 7.60176 2.49739 C
atom 0.24472 7.75594 2.87131 H
atom -0.38067 2.80887 3.38205 O
atom 0.86491 2.64177 3.97411 C
atom 1.54453 1.99207 3.43268 H
atom 0.87825 3.35833 5.13130 C
atom 1.39531 3.92473 6.44711 C
atom 1.62658 3.18004 7.21948 H
atom 2.23412 4.62719 6.36079 H
atom -0.02241 4.61422 6.61073 C
atom -0.60521 4.25268 7.46966 H
atom -0.01057 5.71098 6.63689 H
atom -0.38986 3.98969 5.26913 C
atom -1.14323 3.64330 4.18936 C
atom -2.14714 3.83726 3.82827 H
atom 3.24410 6.70845 9.45189 O
atom 1.99827 6.54484 8.85946 C
atom 1.31930 5.89121 9.39699 H
atom 1.98411 7.26897 7.70686 C
atom 1.46608 7.84548 6.39576 C
atom 1.23456 7.10765 5.61708 H
atom 0.62676 8.54646 6.48845 H
atom 2.88343 8.53679 6.23672 C
atom 3.46575 8.18309 5.37423 H
atom 2.87103 9.63371 6.22038 H
atom 3.25207 7.90118 7.57260 C
atom 4.00604 7.54815 8.64968 C
atom 5.00964 7.74119 9.01198 H
