lattice_vector 5.49005851063 0.0 0.0
lattice_vector 0.00217313102257 8.32534930386 0.0
lattice_vector 0.0413154023507 0.0156402508666 10.5717247714
atom 5.83880 1.09072 1.72572 O
atom 4.98231 1.29048 0.65148 C
atom 5.21111 2.15272 0.03492 H
atom 4.04597 0.30220 0.67430 C
atom 2.83841 -0.52642 0.25145 C
atom 2.92519 -1.03570 -0.71747 H
atom 1.87719 0.00069 0.29035 H
atom 3.13822 -1.45063 1.50393 C
atom 3.40071 -2.49019 1.26924 H
atom 2.34607 -1.45610 2.26298 H
atom 4.32155 -0.53455 1.79290 C
atom 5.42127 -0.03603 2.42067 C
atom 6.01378 -0.27822 3.29366 H
atom -0.31910 5.26391 8.83696 O
atom 0.53749 5.46686 9.91120 C
atom 0.30915 6.33091 10.52776 H
atom 1.47331 4.47851 9.88838 C
atom 2.68045 3.65114 10.31123 C
atom 2.59340 3.14473 11.28014 H
atom 3.64193 4.17813 10.27232 H
atom 2.38015 2.72322 9.05875 C
atom 2.11711 1.68435 9.29344 H
atom 3.17229 2.71550 8.29970 H
atom 1.19729 3.63844 8.76977 C
atom 0.09784 4.13511 8.14201 C
atom -0.49480 3.89034 7.26902 H
atom 5.84702 5.25609 3.55110 O
atom 4.99893 5.45904 4.62534 C
atom 5.23254 6.32309 5.24190 H
atom 4.06241 4.47069 4.60252 C
atom 2.85815 3.64332 5.02536 C
atom 2.95251 3.13691 5.99428 H
atom 1.89663 4.17031 4.98646 H
atom 3.14817 2.71540 3.77288 C
atom 3.41250 1.67653 4.00758 H
atom 2.35009 2.70768 3.01384 H
atom 4.32925 3.63062 3.48391 C
atom 5.42405 4.12729 2.85615 C
atom 6.00975 3.88252 1.98315 H
atom -0.32732 1.09854 7.01158 O
atom 0.52087 1.29830 5.93734 C
atom 0.28771 2.16054 5.32078 H
atom 1.45687 0.31002 5.96016 C
atom 2.66070 -0.51860 5.53731 C
atom 2.56608 -1.02788 4.56840 H
atom 3.62249 0.00851 5.57622 H
atom 2.37020 -1.44281 6.78980 C
atom 2.10533 -2.48237 6.55510 H
atom 3.16827 -1.44828 7.54884 H
atom 1.18960 -0.52673 7.07877 C
atom 0.09505 -0.02821 7.70653 C
atom -0.49077 -0.27040 8.57952 H
