lattice_vector 7.11856305871 0 0
lattice_vector -0.0261059686516 10.3916677179 0
lattice_vector -0.294582268686 -4.56960733529 13.1984735521
atom -0.41630 5.81195 8.20963 S
atom 1.48615 3.69854 8.25226 C
atom 2.40959 6.29741 8.23114 C
atom 2.98574 4.62152 8.19984 S
atom 1.06710 6.76033 8.22463 C
atom 0.19259 4.15414 8.25176 C
atom -0.87650 3.22194 8.25067 C
atom 1.69692 2.29463 8.23757 C
atom -1.79304 2.49478 8.23405 N
atom 1.83894 1.13629 8.19321 N
atom 1.04827 8.15190 8.23815 C
atom -0.11943 8.93971 8.23987 C
atom -1.13869 9.51487 8.24717 N
atom 3.35509 7.21768 8.26399 N
atom 2.69457 8.75210 8.25949 S
atom 3.19922 0.03672 5.00111 S
atom 5.09396 2.15584 4.92051 C
atom 6.02621 -0.43823 4.95370 C
atom 6.59619 1.23930 4.98062 S
atom 4.68586 -0.90627 4.96864 C
atom 3.80181 1.69620 4.93124 C
atom 2.73063 2.62577 4.92231 C
atom 5.30023 3.56059 4.92217 C
atom 1.81430 3.35335 4.93073 N
atom 5.43820 4.71966 4.95837 N
atom 4.67209 -2.29781 4.94973 C
atom 3.50744 -3.08998 4.94301 C
atom 2.49089 -3.66991 4.92829 N
atom 6.97486 -1.35496 4.91261 N
atom 6.32020 -2.89182 4.91511 S
atom -0.01477 7.43622 1.35268 S
atom 1.84972 9.56693 1.56462 C
atom 2.80285 6.98465 1.57751 C
atom 3.35617 8.66198 1.44684 S
atom 1.46720 6.50637 1.56574 C
atom 0.56174 9.09467 1.52867 C
atom -0.51666 10.01067 1.62069 C
atom 2.05665 10.96670 1.66515 C
atom -1.44120 10.72493 1.68812 N
atom 2.22383 12.12208 1.71561 N
atom 1.46416 5.12256 1.70507 C
atom 0.31661 4.30646 1.73620 C
atom -0.67653 3.68793 1.74114 N
atom 3.76070 6.08876 1.70973 N
atom 3.11789 4.55580 1.81704 S
atom 3.30647 -1.66899 11.85036 S
atom 5.17567 -3.79145 11.60614 C
atom 6.11981 -1.20563 11.60428 C
atom 6.67944 -2.88174 11.72398 S
atom 4.78228 -0.73294 11.61878 C
atom 3.88631 -3.32428 11.65381 C
atom 2.80946 -4.24154 11.55513 C
atom 5.38936 -5.18934 11.49403 C
atom 1.88508 -4.95507 11.47750 N
atom 5.56629 -6.34296 11.43686 N
atom 4.77375 0.65101 11.47831 C
atom 3.62424 1.46466 11.45464 C
atom 2.63123 2.08341 11.45826 N
atom 7.07399 -0.30549 11.47429 N
atom 6.42518 1.22431 11.36440 S
