lattice_vector 6.24139956286 0 0
lattice_vector -2.77129343276 6.18769195355 0
lattice_vector -2.28007967026 -2.44387888928 12.7835807978
atom 0.29486 -0.09188 11.60859 O
atom -0.23366 1.17029 11.82667 C
atom -1.31536 1.21097 11.86321 H
atom 0.80225 2.04507 11.94287 C
atom 1.53913 3.35977 12.16771 C
atom 1.41664 3.81396 13.16021 H
atom 1.37750 4.12085 11.39600 H
atom 2.88135 2.54263 12.00109 C
atom 3.51038 2.54258 12.89999 H
atom 3.48638 2.83948 11.13491 H
atom 2.01159 1.30675 11.79430 C
atom 1.67786 0.00219 11.59441 C
atom 2.19221 -0.93798 11.43380 H
atom -0.02977 5.81522 5.83133 O
atom 0.50283 4.55750 5.60857 C
atom 1.58007 4.49841 5.70679 H
atom -0.52583 3.70591 5.34083 C
atom -1.25566 2.41302 4.99165 C
atom -1.18895 1.61070 5.73699 H
atom -1.03503 2.00162 3.99828 H
atom -2.59727 3.24637 5.06313 C
atom -3.28195 2.91612 5.85568 H
atom -3.14013 3.29519 4.10994 H
atom -1.73446 4.45800 5.40138 C
atom -1.40513 5.74584 5.69781 C
atom -1.92353 6.68788 5.82740 H
atom 2.06276 2.18117 2.78887 O
atom 2.59124 0.91900 2.57096 C
atom 3.67295 0.87832 2.53446 H
atom 1.55532 0.04423 2.45474 C
atom 0.81844 -1.27048 2.22990 C
atom 0.94101 -1.72473 1.23746 H
atom 0.97996 -2.03149 3.00165 H
atom -0.52375 -0.45332 2.39635 C
atom -1.15265 -0.45331 1.49742 H
atom -1.12888 -0.75007 3.26242 H
atom 0.34600 0.78256 2.60318 C
atom 0.67974 2.08712 2.80305 C
atom 0.16540 3.02731 2.96358 H
atom -0.38392 2.46178 8.56615 O
atom -0.91653 3.71949 8.78895 C
atom -1.99376 3.77857 8.69072 H
atom 0.11214 4.57107 9.05671 C
atom 0.84196 5.86397 9.40589 C
atom 0.77525 6.66629 8.66055 H
atom 0.62133 6.27536 10.39926 H
atom 2.18357 5.03062 9.33441 C
atom 2.86825 5.36087 8.54185 H
atom 2.72643 4.98180 10.28759 H
atom 1.32076 3.81898 8.99615 C
atom 0.99143 2.53115 8.69971 C
atom 1.50984 1.58911 8.57013 H
