lattice_vector 5.49005851063 0.0 0.0
lattice_vector 0.00217313102257 8.32534930386 0.0
lattice_vector 0.0413154023507 0.0156402508666 10.5717247714
atom 5.81430 5.33638 3.56201 O
atom 5.02098 5.42277 4.69808 C
atom 5.26765 6.23694 5.37055 H
atom 4.10749 4.41434 4.64742 C
atom 2.94707 3.52057 5.06958 C
atom 3.10451 2.93536 5.98524 H
atom 1.97365 4.02239 5.13223 H
atom 3.19030 2.71191 3.72805 C
atom 3.49002 1.66412 3.85827 H
atom 2.35345 2.74751 3.01947 H
atom 4.33277 3.68105 3.44787 C
atom 5.38045 4.25999 2.80042 C
atom 5.92366 4.10739 1.87658 H
atom -0.27226 1.17228 7.00060 O
atom 0.52476 1.26283 5.86735 C
atom 0.28020 2.07963 5.19732 H
atom 1.43929 0.25543 5.91845 C
atom 2.59874 -0.63951 5.49508 C
atom 2.44040 -1.22170 4.57765 H
atom 3.57338 -0.13981 5.43488 H
atom 2.35154 -1.45203 6.83368 C
atom 2.05009 -2.49880 6.69941 H
atom 3.18718 -1.42069 7.54396 H
atom 1.21039 -0.48198 7.11468 C
atom 0.15950 0.09359 7.75997 C
atom -0.38701 -0.06316 8.68108 H
atom -0.26603 5.33746 8.84673 O
atom 0.52674 5.42063 9.98353 C
atom 0.27953 6.23253 10.65832 H
atom 1.44220 4.41433 9.92887 C
atom 2.60331 3.52013 10.34847 C
atom 2.44655 2.93273 11.26267 H
atom 3.57586 4.02320 10.41166 H
atom 2.36069 2.71530 9.00452 C
atom 2.06040 1.66733 9.13211 H
atom 3.19788 2.75179 8.29646 H
atom 1.21845 3.68513 8.72647 C
atom 0.16980 4.26489 8.08123 C
atom -0.37265 4.11341 7.15691 H
atom 5.78846 1.16126 1.71329 O
atom 4.99555 1.24387 0.57666 C
atom 5.24472 2.05366 -0.10028 H
atom 4.07823 0.23927 0.63334 C
atom 2.91794 -0.65612 0.21383 C
atom 3.07752 -1.24619 -0.69836 H
atom 1.94485 -0.15440 0.14659 H
atom 3.15855 -1.45792 1.56004 C
atom 3.45786 -2.50652 1.43572 H
atom 2.32057 -1.41789 2.26687 H
atom 4.30112 -0.48809 1.83684 C
atom 5.35118 0.09023 2.48078 C
atom 5.89316 -0.05996 3.40567 H
