lattice_vector 5.39080037169 0.0 0.0
lattice_vector -1.5909886443 7.56823129591 0.0
lattice_vector -0.00132342066597 -0.0250222451337 12.4005786815
atom 2.74409 1.88806 6.09455 O
atom 3.50361 1.12926 5.21533 C
atom 4.46151 0.80542 5.60612 H
atom 2.80083 0.99406 4.05817 C
atom 2.48258 0.60339 2.61797 C
atom 2.37664 -0.47380 2.43507 H
atom 3.15175 1.03778 1.86266 H
atom 1.10610 1.36879 2.80632 C
atom 0.21820 0.72929 2.72740 H
atom 0.96535 2.24238 2.15695 H
atom 1.56642 1.68402 4.22111 C
atom 1.54941 2.22303 5.46978 C
atom 0.88129 2.84381 6.05433 H
atom 1.04892 5.65843 6.30603 O
atom 0.28940 6.41723 7.18525 C
atom -0.66849 6.74106 6.79446 H
atom 0.99218 6.55242 8.34241 C
atom 1.31043 6.94310 9.78261 C
atom 1.41637 8.02028 9.96551 H
atom 0.64126 6.50870 10.53792 H
atom 2.68691 6.17770 9.59426 C
atom 3.57482 6.81720 9.67318 H
atom 2.82766 5.30411 10.24363 H
atom 2.22659 5.86247 8.17947 C
atom 2.24361 5.32346 6.93080 C
atom 2.91172 4.70268 6.34625 H
atom -0.85163 1.86223 12.29484 O
atom -1.61095 2.62458 11.41562 C
atom -2.56893 2.94683 11.80641 H
atom -0.90793 2.76444 10.25846 C
atom -0.58937 3.16093 8.81826 C
atom -0.48339 4.23885 8.63536 H
atom -1.25838 2.72958 8.06295 H
atom 0.78707 2.39477 9.00661 C
atom 1.67499 3.03459 8.92769 H
atom 0.92796 1.52380 8.35724 H
atom 0.32645 2.07383 10.42140 C
atom 0.34319 1.52978 11.67007 C
atom 1.01118 0.90664 12.25462 H
atom 4.64464 5.68426 0.10574 O
atom 5.40396 4.92191 0.98496 C
atom 6.36195 4.59965 0.59417 H
atom 4.70094 4.78205 2.14212 C
atom 4.38238 4.38556 3.58232 C
atom 4.27640 3.30763 3.76522 H
atom 5.05139 4.81691 4.33763 H
atom 3.00595 5.15172 3.39397 C
atom 2.11802 4.51190 3.47289 H
atom 2.86505 6.02269 4.04334 H
atom 3.46656 5.47266 1.97918 C
atom 3.44982 6.01671 0.73051 C
atom 2.78183 6.63985 0.14596 H
