lattice_vector 7.063660933 0 0
lattice_vector -0.0174707708606 11.7087866943 0
lattice_vector -0.0234693472982 -5.40549057421 11.6807130548
atom -0.48667 0.50527 5.58395 S
atom 1.52505 -1.09869 6.79887 C
atom 2.30982 1.07720 5.30356 C
atom 2.97386 -0.26856 6.24840 S
atom 0.94471 1.37303 5.03893 C
atom 0.20921 -0.79208 6.55990 C
atom -0.81000 -1.60699 7.11269 C
atom 1.82325 -2.25651 7.56416 C
atom -1.69092 -2.24798 7.54025 N
atom 2.07268 -3.21804 8.17954 N
atom 0.85591 2.51572 4.25146 C
atom -0.34318 3.11341 3.81732 C
atom -1.37829 3.56438 3.51055 N
atom 3.20596 1.88742 4.78004 N
atom 2.47104 3.10630 3.90987 S
atom 3.05834 2.64637 0.25653 S
atom 5.07121 4.25108 -0.95553 C
atom 5.85453 2.07185 0.53586 C
atom 6.51949 3.41904 -0.40642 S
atom 4.48914 1.77727 0.80063 C
atom 3.75507 3.94505 -0.71693 C
atom 2.73651 4.76168 -1.26831 C
atom 5.37040 5.40972 -1.71906 C
atom 1.85714 5.40476 -1.69598 N
atom 5.62109 6.37199 -2.33275 N
atom 4.39951 0.63357 1.58674 C
atom 3.19983 0.03581 2.01916 C
atom 2.16496 -0.41470 2.32740 N
atom 6.75000 1.26038 1.05826 N
atom 6.01435 0.04130 1.92744 S
atom 7.50957 5.80145 6.09676 S
atom 5.49671 7.40599 4.88455 C
atom 4.71354 5.22615 6.37499 C
atom 4.04843 6.57410 5.43373 S
atom 6.07885 4.93175 6.64039 C
atom 6.81276 7.09992 5.12317 C
atom 7.83131 7.91600 4.57082 C
atom 5.19781 8.56409 4.11998 C
atom 8.71129 8.55790 4.14269 N
atom 4.94704 9.52606 3.50585 N
atom 6.16838 3.78816 7.42651 C
atom 7.36752 3.19059 7.86061 C
atom 8.40175 2.73773 8.16767 N
atom 3.81791 4.41366 6.89605 N
atom 4.55360 3.19498 7.76585 S
atom 3.96431 3.65115 11.41932 S
atom 1.95189 2.05088 12.63801 C
atom 1.16818 4.22724 11.14259 C
atom 0.50333 2.87899 12.08349 S
atom 2.53354 4.52150 10.87711 C
atom 3.26797 2.35662 12.39879 C
atom 4.28672 1.54231 12.95333 C
atom 1.65290 0.89496 13.40587 C
atom 5.16736 0.90147 13.38174 N
atom 1.40200 -0.06595 14.02167 N
atom 2.62307 5.66565 10.09166 C
atom 3.82225 6.26378 9.65834 C
atom 4.85683 6.71446 9.34938 N
atom 0.27264 5.03949 10.62142 N
atom 1.00814 6.25878 9.75252 S
