lattice_vector 6.5002032663 0.0 0.0
lattice_vector 3.20910881186 5.86088158785 0.0
lattice_vector 0.989182985318 0.221526099246 13.1351446947
atom 3.99190 -0.19570 1.58694 O
atom 5.35118 -0.02494 1.37912 C
atom 5.89621 -0.93488 1.16000 H
atom 5.63306 1.29982 1.51100 C
atom 6.44238 2.59093 1.51862 C
atom 6.88739 2.88305 0.55792 H
atom 7.20007 2.65966 2.30734 H
atom 5.09153 3.34069 1.85045 C
atom 4.78310 4.05409 1.07610 H
atom 5.07985 3.83898 2.82822 H
atom 4.41410 1.97469 1.80830 C
atom 3.42345 1.04175 1.84642 C
atom 2.35407 1.01928 2.02021 H
atom 4.27759 5.39768 8.07259 O
atom 2.92039 5.23165 8.28605 C
atom 2.35942 6.15454 8.37065 H
atom 2.65756 3.89540 8.30602 C
atom 1.86583 2.59712 8.42340 C
atom 1.11683 2.42213 7.64104 H
atom 1.41231 2.40962 9.40518 H
atom 3.23194 1.83751 8.18636 C
atom 3.25269 1.24092 7.26460 H
atom 3.54352 1.21110 9.03263 H
atom 3.88951 3.21098 8.09635 C
atom 4.86619 4.15052 7.96137 C
atom 5.93954 4.16451 7.81749 H
atom 6.08939 4.23990 12.23772 O
atom 4.73013 4.06913 12.44537 C
atom 4.18509 4.97908 12.66446 H
atom 4.44826 2.74436 12.31351 C
atom 3.63894 1.45326 12.30589 C
atom 3.19383 1.16117 13.26654 H
atom 2.88136 1.38446 11.51712 H
atom 4.98979 0.70350 11.97423 C
atom 5.29812 -0.00982 12.74864 H
atom 5.00161 0.20514 10.99657 H
atom 5.66722 2.06949 12.01634 C
atom 6.65787 3.00244 11.97824 C
atom 7.72725 3.02491 11.80454 H
atom 4.07509 1.60921 5.02894 O
atom 5.43229 1.77524 4.81543 C
atom 5.99325 0.85235 4.73085 H
atom 5.69511 3.11149 4.79545 C
atom 6.48685 4.40977 4.67807 C
atom 7.23585 4.58476 5.46042 H
atom 6.94036 4.59727 3.69629 H
atom 5.12073 5.16938 4.91512 C
atom 5.09999 5.76597 5.83688 H
atom 4.80916 5.79579 4.06884 H
atom 4.46316 3.79591 5.00512 C
atom 3.48648 2.85638 5.14011 C
atom 2.41314 2.84239 5.28399 H
