lattice_vector      5.4684022028      0.0000000000      0.0000000000
lattice_vector      0.0000000000      5.6869855027      0.0000000000
lattice_vector     -0.1019120962      0.0000000000      4.9841273150
atom     -0.2772764639      5.3785518294      0.4968874667 C
atom     -0.3704228165      5.7956208081     -0.9422707634 C
atom     -0.9785174964      5.0793318031     -1.4846696741 H
atom     -0.8143155582      6.7812232212     -0.9839618000 H
atom      0.9625442519      5.8497947754     -1.5358319334 N
atom      1.5921793451      6.3532679213     -0.9248467133 H
atom      1.3211777245      4.9124009215     -1.6704925449 H
atom      0.9287728952      6.3219909306     -2.4302879275 H
atom     -1.2317413329      4.7645384575      1.0156673539 O
atom      0.7472085160      5.6921277616      1.1306142265 O
atom      2.4569246375      2.5350590781      0.4968874667 C
atom      2.3637782848      2.9521280567     -0.9422707634 C
atom      1.7556836050      2.2358390517     -1.4846696741 H
atom      1.9198855431      3.9377304699     -0.9839618000 H
atom      3.6967453533      3.0063020241     -1.5358319334 N
atom      4.3263804465      3.5097751700     -0.9248467133 H
atom      4.0553788259      2.0689081702     -1.6704925449 H
atom      3.6629739966      3.4784981792     -2.4302879275 H
atom      1.5024597685      1.9210457061      1.0156673539 O
atom      3.4814096174      2.8486350103      1.1306142265 O
