lattice_vector      5.1894133316      0.0000000000      0.0000000000
lattice_vector      0.0000000000      5.7305039865      0.0000000000
lattice_vector      1.0307883429      0.0000000000      5.2121945284
atom      5.5949385449     -0.4139495156      4.5657575119 C
atom      6.3944534852     -0.0606005221      3.3452168380 C
atom      6.0046255251     -0.6044464877      2.4912195407 H
atom      7.4278045514     -0.3247140037      3.5258287650 H
atom      6.3091411884      1.3741942766      3.0880464971 N
atom      6.4762847128      1.8885510018      3.9428732046 H
atom      5.3874498232      1.6108073064      2.7416969816 H
atom      7.0002548317      1.6487403290      2.4016445477 H
atom      5.0917663387     -1.5523498271      4.6552596929 O
atom      5.4903043668      0.4421587293      5.4633316353 O
atom      4.3491126282      2.8333098309      2.7681344885 C
atom      3.1188255260      2.1116535097      2.2997276273 C
atom      3.3951416140      1.3865209528      1.5415206298 H
atom      2.6668398322      1.6198571824      3.1506308713 H
atom      2.1633232957      3.0622167153      1.7380373509 N
atom      2.0547568073      3.8514940497      2.3613214798 H
atom      2.4942179275      3.3990554119      0.8422097332 H
atom      1.2619680586      2.6197164572      1.6118886411 H
atom      5.4440695139      2.2348045676      2.7651266878 O
atom      4.2210190969      4.0031117660      3.1739231343 O
