lattice_vector      5.4853378799      0.0000000000      0.0000000000
lattice_vector      0.0000000000      5.8415139310      0.0000000000
lattice_vector     -1.1514530286      0.0000000000      4.8372986095
atom     -0.6177385620      2.0976393934      2.9140961293 C
atom     -1.3041357664      2.6531800188      1.6999986543 C
atom     -1.7568249751      1.8411254001      1.1408158280 H
atom     -2.0574770492      3.3576393330      2.0261964650 H
atom     -0.3393128806      3.3483016647      0.8526654359 N
atom      0.2295893554      3.9681391865      1.4142526426 H
atom      0.2660015703      2.6785424845      0.3938890836 H
atom     -0.8202772821      3.8944576949      0.1494243150 H
atom     -1.0747478060      1.0701376360      3.4549573575 O
atom      0.3730210608      2.7084157190      3.3555217686 O
atom      3.1003224482      5.6414924377      0.0346075431 C
atom      1.9514365402      4.8763735931      0.6249070531 C
atom      2.2007533446      4.5800955432      1.6383694869 H
atom      1.0775023839      5.5138582881      0.6183207301 H
atom      1.6772247123      3.6865856991     -0.1758822621 N
atom      1.6440440230      3.9309872631     -1.1568998031 H
atom      2.4072980335      2.9986809638     -0.0371785987 H
atom      0.7882218374      3.2826549188      0.0899655366 H
atom      3.8258778530      6.3252872183      0.7850355752 O
atom      3.2666282120      5.5867494869     -1.1978106275 O
