lattice_vector      5.2657250333      0.0000000000      0.0000000000
lattice_vector      0.0000000000      5.6802932049      0.0000000000
lattice_vector      0.0000000000      0.0000000000      5.1820639388
atom     -0.0001264128     -0.3375142415      0.4747710711 C
atom     -0.4426529467      0.9394968741     -0.1788435439 C
atom     -0.0753882577      1.7828703894      0.3963811238 H
atom     -1.5236955517      0.9463773536     -0.2174514541 H
atom      0.0814751069      1.0140152984     -1.5396475983 N
atom     -0.0838029658      0.1400768199     -2.0214600025 H
atom      1.0785484175      1.1896999779     -1.5187097828 H
atom     -0.3744145352      1.7593833225     -2.0502867877 H
atom      0.1433108129     -0.3691227102      1.7139542075 O
atom      0.1786550440     -1.3332781418     -0.2504877729 O
atom      2.8739525694      3.2924346923     -0.2768294048 C
atom      1.7257834640      2.3311862726     -0.1695523396 C
atom      1.6240987152      1.7882286069     -1.1033097180 H
atom      0.8274009181      2.8949436207      0.0432327143 H
atom      1.9625522290      1.3868159030      0.9186370022 N
atom      2.2580922658      1.8837550259      1.7486587448 H
atom      2.6882813282      0.7306694672      0.6573941753 H
atom      1.1151166379      0.8752163511      1.1290652711 H
atom      3.1493328156      3.7901790463     -1.3874888741 O
atom      3.4931131392      3.5810276969      0.7637777313 O
