lattice_vector      5.4614397211      0.0000000000      0.0000000000
lattice_vector      0.0000000000      5.5639875839      0.0000000000
lattice_vector      1.0502025866      0.0000000000      5.1008012446
atom      1.0274849189      2.5264539567      2.4033171954 C
atom     -0.0509255756      2.7159622640      3.4304085225 C
atom      0.3885589327      3.0986267029      4.3455407265 H
atom     -0.5262842512      1.7603411926      3.6065150893 H
atom     -1.0506290027      3.6601579671      2.9393500548 N
atom     -1.3182164534      3.4189323909      1.9941327909 H
atom     -0.6713836679      4.5991102797      2.9398149755 H
atom     -1.8737543950      3.6362969542      3.5276157088 H
atom      2.1811067945      2.2343515966      2.7787915062 O
atom      0.7172538776      2.6397121965      1.2031346187 O
atom      3.7582047795     -0.2555398353      2.4033171954 C
atom      2.6797942849     -0.0660315280      3.4304085225 C
atom      3.1192787933      0.3166329109      4.3455407265 H
atom      2.2044356094     -1.0216525994      3.6065150893 H
atom      1.6800908578      0.8781641752      2.9393500548 N
atom      1.4125034071      0.6369385989      1.9941327909 H
atom      2.0593361927      1.8171164877      2.9398149755 H
atom      0.8569654656      0.8543031623      3.5276157088 H
atom      4.9118266550     -0.5476421954      2.7787915062 O
atom      3.4479737381     -0.1422815955      1.2031346187 O
