lattice_vector      5.8413458977      0.0000000000      0.0000000000
lattice_vector      0.0000000000      5.2212482801      0.0000000000
lattice_vector      1.5673658118      0.0000000000      5.0821143075
atom      4.0798599804      0.6417028662      0.0325577807 C
atom      5.4404662230      0.1984515567     -0.4214004958 C
atom      5.5193442494      0.3261356147     -1.4958867428 H
atom      6.1825553647      0.7975679490      0.0890446820 H
atom      5.6491978976     -1.2063217825     -0.0821456650 N
atom      5.3804853550     -1.3729035740      0.8787250727 H
atom      5.0869902005     -1.7961161299     -0.6834141728 H
atom      6.6240858620     -1.4530003451     -0.1957431229 H
atom      3.4977966137      1.5535620493     -0.5894255358 O
atom      3.5943879972      0.0966407633      1.0408896718 O
atom      1.1391048574      3.2523270063     -0.0325577807 C
atom      2.7797200252      2.8090756967      0.4214004958 C
atom      3.5213588266      2.9367597547      1.4958867428 H
atom      3.2069581926      3.4081920890     -0.0890446820 H
atom      2.7791937448      1.4043023575      0.0821456650 N
atom      1.9178003404      1.2377205660     -0.8787250727 H
atom      2.5878583446      0.8145080102      0.6834141728 H
atom      3.8241504882      1.1576237949      0.1957431229 H
atom      0.9406910219      4.1641861894      0.5894255358 O
atom      0.0316771930      2.7072649033     -1.0408896718 O
