lattice_vector      5.7467238186      0.0000000000      0.0000000000
lattice_vector      0.0000000000      5.4854216276      0.0000000000
lattice_vector      0.0000000000      0.0000000000      4.9170130142
atom      0.1386371174      0.2462013927     -0.5093997183 C
atom      0.3864076790      0.1534055334      0.9683681474 C
atom      1.4224338877     -0.1177691388      1.1420334826 H
atom      0.1644041564      1.1143898276      1.4126818290 H
atom     -0.4862696223     -0.8564208991      1.5605976559 N
atom     -1.4351758962     -0.7261870486      1.2352600989 H
atom     -0.1760479836     -1.7828935167      1.2943840026 H
atom     -0.4741910433     -0.7815217815      2.5697584305 H
atom      1.0699482190      0.5978662953     -1.2618222107 O
atom     -1.0070848418     -0.0048293495     -0.9263094252 O
atom      3.0119990267      2.9889122065      1.9491067888 C
atom      3.2597695883      2.8961163472      3.4268746545 C
atom      4.2957957970      2.6249416750      3.6005399897 H
atom      3.0377660657      3.8571006414      3.8711883361 H
atom      2.3870922870      1.8862899147      4.0191041630 N
atom      1.4381860131      2.0165237652      3.6937666060 H
atom      2.6973139256      0.9598172971      3.7528905097 H
atom      2.3991708660      1.9611890322      5.0282649376 H
atom      3.9433101282      3.3405771091      1.1966842964 O
atom      1.8662770675      2.7378814642      1.5321970819 O
