lattice_vector      5.0114668182      0.0000000000      0.0000000000
lattice_vector      0.0000000000      5.5493640657      0.0000000000
lattice_vector     -2.3931774676      0.0000000000      5.5734437376
atom      0.8958588302      1.0573874170      0.8469007718 C
atom     -0.2679684929      2.1146592055      1.8750462875 C
atom     -1.4492921503      2.2160470665      2.0014808302 H
atom      0.4577009771      3.0455412127      1.5345351714 H
atom     -0.7564394552      1.7470673657      3.1510186247 N
atom      0.3253947751      1.4539473525      3.0058998708 H
atom     -1.6317418435      0.9826757467      3.5725933148 H
atom     -1.3059999878      2.5375410866      3.7828925362 H
atom      0.8778394977      0.8790238474     -0.0810934059 O
atom      1.8727456894      0.4144948087      0.9452835870 O
atom      1.7224305204      4.4919766487      4.7265429657 C
atom      2.8862578435      3.4347048602      3.6983974501 C
atom      4.0675815008      3.3333169992      3.5719629073 H
atom      2.1605883735      2.5038228530      4.0389085661 H
atom      3.3747288058      3.8022966999      2.4224251129 N
atom      2.2928945755      4.0954167132      2.5675438668 H
atom      4.2500311941      4.5666883190      2.0008504227 H
atom      3.9242893384      3.0118229791      1.7905512014 H
atom      1.7404498528      4.6703402183      5.6545371435 O
atom      0.7455436611      5.1348692569      4.6281601506 O
