lattice_vector      5.5343957820      0.0000000000      0.0000000000
lattice_vector      0.0000000000      5.1379145536      0.0000000000
lattice_vector     -0.1106585733      0.0000000000      5.4509802321
atom      2.3461732458      0.1212954562      0.3838607946 C
atom      2.8145915692      0.1489125402     -1.0421899613 C
atom      2.1186534634     -0.4096497351     -1.6592183191 H
atom      2.8666295909      1.1802389437     -1.3644459451 H
atom      4.1430618228     -0.4482557889     -1.1451834501 N
atom      4.7482165010     -0.0694266792     -0.4285909443 H
atom      4.0833027468     -1.4516759423     -1.0225639822 H
atom      4.5469511752     -0.2499244900     -2.0516597740 H
atom      1.1226847092      0.0603573544      0.6215802235 O
atom      3.2050681064      0.1917378325      1.2821071057 O
atom     -0.4607686660      0.1212954562      2.3416293214 C
atom     -0.0502499260      0.1489125402      3.7676800774 C
atom     -0.7712402150     -0.4096497351      4.3847084351 H
atom     -0.0112959317      1.1802389437      4.0899360612 H
atom      1.2740386531     -0.4482557889      3.8706735662 N
atom      1.9082879532     -0.0694266792      3.1540810603 H
atom      1.2192580928     -1.4516759423      3.7480540982 H
atom      1.6411238446     -0.2499244900      4.7771498901 H
atom     -1.6746054734      0.0603573544      2.1039098925 O
atom      0.4345962058      0.1917378325      1.4433830104 O
