lattice_vector      5.3220168390      0.0000000000      0.0000000000
lattice_vector      0.0000000000      5.8442670696      0.0000000000
lattice_vector      0.0000000000      0.0000000000      4.9833960067
atom      0.3984092650     -0.3969109161      0.1518394920 C
atom      0.1089080436      0.9705148340     -0.3960063332 C
atom      0.5835606519      1.7166281411      0.2325360210 H
atom      0.4936966105      1.0221868073     -1.4056888533 H
atom     -1.3321082122      1.2044096771     -0.4245762431 N
atom     -1.8028943413      0.4082765614     -0.8341625967 H
atom     -1.6808900689      1.3390033871      0.5165371586 H
atom     -1.5426392713      2.0268404215     -0.9754351930 H
atom      1.4737191094     -0.5968267114      0.7525811936 O
atom     -0.4417895040     -1.2942931519     -0.0438135085 O
atom      3.0594176845      2.5252226187      0.1518394920 C
atom      2.7699164631      3.8926483688     -0.3960063332 C
atom      3.2445690714      4.6387616759      0.2325360210 H
atom      3.1547050300      3.9443203421     -1.4056888533 H
atom      1.3289002073      4.1265432119     -0.4245762431 N
atom      0.8581140782      3.3304100962     -0.8341625967 H
atom      0.9801183506      4.2611369219      0.5165371586 H
atom      1.1183691482      4.9489739564     -0.9754351930 H
atom      4.1347275289      2.3253068234      0.7525811936 O
atom      2.2192189155      1.6278403829     -0.0438135085 O
