lattice_vector      4.9949420999      0.0000000000      0.0000000000
lattice_vector      0.0000000000      5.7839386296      0.0000000000
lattice_vector     -0.3628888543      0.0000000000      5.3650968176
atom      1.8647432047      1.7457136994      0.9643002514 C
atom      3.1691194056      1.0111636977      0.8509944301 C
atom      3.0601522255      0.1932167866      0.1466261593 H
atom      3.9246575070      1.7074338227      0.5125256491 H
atom      3.5611394453      0.4816359022      2.1540567805 N
atom      3.4688468271      1.1998365524      2.8603841813 H
atom      2.9666688412     -0.2988133271      2.4049798499 H
atom      4.5234457852      0.1692962887      2.1301462612 H
atom      1.1063981343      1.7957603058     -0.0254250994 O
atom      1.6027838034      2.3075176807      2.0437735044 O
atom      2.7673100409      4.0382249301      4.4007965662 C
atom      1.4629338401      4.7727749318      4.5141023875 C
atom      1.5719010202      5.5907218430      5.2184706583 H
atom      0.7073957386      4.0765048069      4.8525711686 H
atom      1.0709138004      5.3023027274      3.2110400372 N
atom      1.1632064185      4.5841020772      2.5047126364 H
atom      1.6653844045      6.0827519566      2.9601169677 H
atom      0.1086074605      5.6146423409      3.2349505564 H
atom      3.5256551113      3.9881783237      5.3905219170 O
atom      3.0292694422      3.4764209489      3.3213233133 O
