lattice_vector      5.7708774338      0.0000000000      0.0000000000
lattice_vector      0.0000000000      5.2870332698      0.0000000000
lattice_vector      1.5844360794      0.0000000000      5.0801648392
atom      1.3221011062      1.6113474336      0.2179629921 C
atom      0.8379013385      0.3995380457     -0.5242416829 C
atom     -0.0013678292     -0.0355363094      0.0080958289 H
atom      0.5415658836      0.7043399410     -1.5189638191 H
atom      1.9104082595     -0.5857169786     -0.6293717368 N
atom      2.7626316094     -0.1365441352     -0.9378966419 H
atom      2.0776513176     -1.0146860846      0.2725561710 H
atom      1.6610345963     -1.3051804418     -1.2959648212 H
atom      0.5056027896      2.2902102997      0.8734199980 O
atom      2.5266149932      1.9110576601      0.1240001199 O
atom      4.2075398231      4.2548640686      0.2179629921 C
atom      3.7233400554      3.0430546806     -0.5242416829 C
atom      2.8840708877      2.6079803256      0.0080958289 H
atom      3.4270046005      3.3478565759     -1.5189638191 H
atom      4.7958469764      2.0577996563     -0.6293717368 N
atom      5.6480703263      2.5069724997     -0.9378966419 H
atom      4.9630900345      1.6288305503      0.2725561710 H
atom      4.5464733132      1.3383361931     -1.2959648212 H
atom      3.3910415065      4.9337269346      0.8734199980 O
atom      5.4120537101      4.5545742950      0.1240001199 O
