lattice_vector      5.5755084545      0.0000000000      0.0000000000
lattice_vector      0.0000000000      4.9636204495      0.0000000000
lattice_vector      0.0000000000      0.0000000000      5.6007818123
atom      0.9055888096      2.4924745438      0.3860739646 C
atom      2.3032984460      2.9116103859      0.0331828968 C
atom      2.3667729342      3.9946056739      0.0449239472 H
atom      2.9817048579      2.4822385202      0.7581625976 H
atom      2.6541897458      2.4184424076     -1.2956178887 N
atom      2.4055948759      1.4413718428     -1.3778504877 H
atom      2.1536170417      2.9415175822     -2.0036277862 H
atom      3.6488650743      2.5164902940     -1.4542647983 H
atom      0.2327940673      3.2057495787      1.1579121199 O
atom      0.4798631502      1.4225210513     -0.0866480804 O
atom      4.6699196449      2.4924745438      2.4143169415 C
atom      3.2722100085      2.9116103859      2.7672080093 C
atom      3.2087355203      3.9946056739      2.7554669589 H
atom      2.5938035965      2.4822385202      2.0422283085 H
atom      2.9213187086      2.4184424076      4.0960087948 N
atom      3.1699135786      1.4413718428      4.1782413938 H
atom      3.4218914128      2.9415175822      4.8040186923 H
atom      1.9266433802      2.5164902940      4.2546557044 H
atom      5.3427143871      3.2057495787      1.6424787863 O
atom      5.0956453043      1.4225210513      2.8870389866 O
