lattice_vector      5.7210162930      0.0000000000      0.0000000000
lattice_vector      0.0000000000      5.5246649500      0.0000000000
lattice_vector      0.3456482600      0.0000000000      4.9040237944
atom      0.2347558656     -0.3533629618      0.3991838548 C
atom     -0.9949129000      0.3177769877     -0.1405244762 C
atom     -1.7279230787     -0.4366142977     -0.4062979195 H
atom     -1.3863589794      0.9774443143      0.6222336837 H
atom     -0.6579899777      1.1059871476     -1.3225814016 N
atom      0.1613942373      1.6700805783     -1.1391785447 H
atom     -0.4618441180      0.4930712879     -2.1044507232 H
atom     -1.4267693574      1.7170810393     -1.5669249302 H
atom      0.1192927211     -1.4355924529      1.0095900879 O
atom      1.3291601162      0.2182267467      0.2408377567 O
atom      2.6257522809      3.1156954368     -0.3991838548 C
atom      3.8554210465      2.4445554873      0.1405244762 C
atom      4.5884312252      3.1989467727      0.4062979195 H
atom      4.2468671259      1.7848881607     -0.6222336837 H
atom      3.5184981243      1.6563453274      1.3225814016 N
atom      2.6991139092      1.0922518967      1.1391785447 H
atom      3.3223522645      2.2692611871      2.1044507232 H
atom      4.2872775039      1.0452514357      1.5669249302 H
atom      2.7412154254      4.1979249279     -1.0095900879 O
atom      1.5313480304      2.5441057283     -0.2408377567 O
