lattice_vector      5.2303540389      0.0000000000      0.0000000000
lattice_vector      0.0000000000      5.2174791686      0.0000000000
lattice_vector      0.4533199238      0.0000000000      5.6798895091
atom      2.8135942811      0.5444099555      3.9148269701 C
atom      2.8990529761     -0.9084382343      3.5640787368 C
atom      1.9099229068     -1.2542263233      3.0925642610 H
atom      3.6321252340     -1.0169793198      2.8916715928 H
atom      3.3435134085     -1.6929718348      4.7694954692 N
atom      4.1572171290     -1.2544550006      5.3212017105 H
atom      2.5903591836     -1.7512350232      5.3284762519 H
atom      3.6020165941     -2.6281750594      4.5228608728 H
atom      1.9824049473      1.2755680813      3.2021985422 O
atom      3.6055480144      0.9728704037      4.8957601570 O
atom      0.0354575420      2.0972218638      0.0755380829 C
atom      0.5392690781      3.5115427331      0.2302995768 C
atom      1.6350472679      3.5073676985      0.4781939857 H
atom      0.2198694433      4.0336268686     -0.7016342037 H
atom     -0.0372005390      4.1801988297      1.2925562134 N
atom     -1.0467835266      4.0139584321      1.1756375878 H
atom      0.3919579978      3.8218030085      2.1957697151 H
atom      0.1273664373      5.1776159863      1.2648942510 H
atom      0.7626462233      1.2277253746     -0.3388749298 O
atom     -1.1133621396      1.8518457536      0.3408766660 O
