lattice_vector      5.7466696991      0.0000000000      0.0000000000
lattice_vector      0.0000000000      5.5670347934      0.0000000000
lattice_vector      2.3484219558      0.0000000000      4.8449748458
atom      4.4837621998     -0.4630170244      2.5228550055 C
atom      3.1660081159      0.1463384022      2.5777178449 C
atom      1.9123754241     -0.4568654325      1.9905374521 H
atom      3.8525176373      0.1835953679      3.6116688882 H
atom      2.6800551350      1.5043506998      2.0422242887 N
atom      3.8451131165      2.0154404275      2.4453057039 H
atom      1.8216297777      1.4784593220      1.0366237600 H
atom      2.0328925570      1.9888817645      2.2625279218 H
atom      4.4815722181     -1.7002623257      2.4051665401 O
atom      5.5673898362      0.2958699644      2.6287008814 O
atom      0.8352935358      3.2465344211      2.5228550055 C
atom      2.2062330750      2.6371789945      2.5777178449 C
atom      2.8906379089      3.2403828292      1.9905374521 H
atom      2.5220624340      2.5999220289      3.6116688882 H
atom      2.1730647541      1.2791666969      2.0422242887 N
atom      1.3987643205      0.7680769692      2.4453057039 H
atom      2.0566349530      1.3050580748      1.0366237600 H
atom      3.0337953713      0.7946356322      2.2625279218 H
atom      0.7233932756      4.4837797224      2.4051665401 O
atom     -0.1457243713      2.4876474324      2.6287008814 O
