lattice_vector      5.3797041412      0.0000000000      0.0000000000
lattice_vector      0.0000000000      5.0368106429      0.0000000000
lattice_vector     -0.5040354196      0.0000000000      5.7202851970
atom      3.3075024507      0.2686947179      1.3588548077 C
atom      3.5599035017     -0.7833085083      2.3997112382 C
atom      3.2641842190     -1.7516830640      2.0100363963 H
atom      2.9847267947     -0.5356702150      3.2817758939 H
atom      4.9771676272     -0.8123369182      2.7498121331 N
atom      5.3099820100      0.1276515992      2.9197670453 H
atom      5.5141437288     -1.2147205717      1.9913909130 H
atom      5.1203521921     -1.3651859960      3.5852864394 H
atom      2.3642479582      0.1167954662      0.5561433039 O
atom      4.0385771932      1.2761851954      1.3575884197 O
atom      1.5345374217      2.8675433143      4.0318275777 C
atom      0.7670304609      1.7901006544      3.3220039606 C
atom     -0.2470829505      2.1311339253      3.1422375748 H
atom      0.7668158020      0.9049728764      3.9438880302 H
atom      1.4070010199      1.4750101984      2.0479527156 N
atom      2.4021380722      1.3531766856      2.1824418998 H
atom      1.2584031383      2.2291741407      1.3887000303 H
atom      1.0226025109      0.6209225609      1.6646338762 H
atom      0.9287229494      3.6390719385      4.8031126001 O
atom      2.7634862137      2.9296248440      3.8438390264 O
