lattice_vector      5.4849403534      0.0000000000      0.0000000000
lattice_vector      0.0000000000      5.3652439911      0.0000000000
lattice_vector     -1.7637289551      0.0000000000      5.2670848199
atom      1.5360882620     -0.1383108820      3.0970960552 C
atom      2.6997283059      0.6309515425      2.5421398786 C
atom      2.5522726681      1.6893143204      2.7296784663 H
atom      3.6020592546      0.2804713161      3.0249995843 H
atom      2.8114976144      0.4029740730      1.1042300130 N
atom      2.7453841126     -0.5866653935      0.9055563366 H
atom      2.0641695294      0.8824943230      0.6173832725 H
atom      3.7006729160      0.7454888245      0.7633309562 H
atom      0.9420237006      0.2986371307      4.1037300054 O
atom      1.2261077706     -1.2089139018      2.5428125410 O
atom      3.0669876139      2.5443111136     -0.4635536453 C
atom      1.9033475699      3.3135735380      0.0914025313 C
atom      2.0508032078      4.3719363159     -0.0961360563 H
atom      1.0010166212      2.9630933117     -0.3914571743 H
atom      1.7915782615      3.0855960685      1.5293123970 N
atom      1.8576917632      2.0959566020      1.7279860733 H
atom      2.5389063464      3.5651163185      2.0161591374 H
atom      0.9024029598      3.4281108200      1.8702114537 H
atom      3.6610521752      2.9812591262     -1.4701875955 O
atom      3.3769681052      1.4737080937      0.0907298689 O
