lattice_vector      5.6090095345      0.0000000000      0.0000000000
lattice_vector     -0.1246007944      4.8635955373      0.0000000000
lattice_vector      1.0346730889     -1.3668802684      5.6818278165
atom      0.1045050366     -0.3114121326      0.7982971570 C
atom      1.3987977248      0.3829634451      1.1088582333 C
atom      2.0962274179     -0.3314178501      1.5334719930 H
atom      1.7914782821      0.7994884240      0.1909802745 H
atom      1.1709186578      1.4653471044      2.0620463740 N
atom      0.3797685984      2.0230313969      1.7682806309 H
atom      0.9767651226      1.0846007160      2.9800851956 H
atom      1.9872578266      2.0608902556      2.1175437200 H
atom      0.1221454655     -1.5177833597      0.4796979479 O
atom     -0.9431863584      0.3593652249      0.8419940994 O
atom      4.7907302087      2.0276832498      4.5059233392 C
atom      3.9516527848      0.9634003026      5.1517174802 C
atom      4.1832124506      0.0029073997      4.7035220303 H
atom      4.1704207526      0.9522594937      6.2110604295 H
atom      2.5342727253      1.2589930973      4.9627477652 N
atom      2.3501303035      2.2269761918      5.1915026465 H
atom      2.2713768016      1.0976364046      3.9982227855 H
atom      1.9705831029      0.6692901824      5.5616348335 H
atom      5.9246066309      1.7320132849      4.0769108573 O
atom      4.3287753799      3.1822778221      4.4509865125 O
