lattice_vector      5.8012558266      0.0000000000      0.0000000000
lattice_vector      0.0000000000      5.3272103462      0.0000000000
lattice_vector      2.0875053997      0.0000000000      5.0154491916
atom      0.4607354374      2.6937981249      0.2578929270 C
atom     -0.4823588281      1.5283100277      0.1803694504 C
atom      0.0826336007      0.6216878917     -0.0090124770 H
atom     -1.0143142222      1.4566350405      1.1195590906 H
atom     -1.4464224602      1.7342702349     -0.8967622003 N
atom     -1.8325056367      2.6675497878     -0.8405700725 H
atom     -0.9922509423      1.6243464114     -1.7951516875 H
atom     -2.2012033474      1.0640429168     -0.8242198447 H
atom      1.6193978408      2.5119222735      0.6840041662 O
atom      0.0347918892      3.8132172470     -0.0811968370 O
atom      2.4398924759      5.3574032980     -0.2578929270 C
atom      3.3829867414      4.1919152008     -0.1803694504 C
atom      2.8179943126      3.2852930648      0.0090124770 H
atom      3.9149421355      4.1202402136     -1.1195590906 H
atom      4.3470503735      4.3978754080      0.8967622003 N
atom      4.7331335500      5.3311549609      0.8405700725 H
atom      3.8928788557      4.2879515845      1.7951516875 H
atom      5.1018312607      3.7276480899      0.8242198447 H
atom      1.2812300725      5.1755274466     -0.6840041662 O
atom      2.8658360241      6.4768224201      0.0811968370 O
