lattice_vector      5.0763644408      0.0000000000      0.0000000000
lattice_vector     -0.9064517008      5.4407298561      0.0000000000
lattice_vector     -0.7530252890     -1.1440796818      5.6120527191
atom      0.0039277171      2.6899799306      1.1103904194 C
atom      1.0894308030      3.3776311952      1.8866751458 C
atom      2.0156163943      3.3346611911      1.3233107114 H
atom      0.7919981624      4.4042654755      2.0532491665 H
atom      1.2749501075      2.7216406648      3.1779186930 N
atom      0.3783286910      2.5759624585      3.6229764353 H
atom      1.7235985504      1.8229052557      3.0496692311 H
atom      1.8500110925      3.2944159894      3.7823974188 H
atom      0.0438105758      2.7060306241     -0.1367262196 O
atom     -0.9190219593      2.1513493763      1.7487868214 O
atom      1.9940620335      0.3223292851      4.6853830138 C
atom      1.7036862770      0.3463064195      3.2126623327 C
atom      1.3330500400     -0.6255824942      2.9042691165 H
atom      0.9651425476      1.1135812883      3.0228375160 H
atom      2.9188008535      0.6621576063      2.4671521178 N
atom      3.3814555630      1.4596965971      2.8832178293 H
atom      3.5528537472     -0.1272005476      2.4858421756 H
atom      2.6926931731      0.8812689303      1.5053689908 H
atom      1.3132939464     -0.4139292437      5.4280985508 O
atom      2.8922582210      1.0690302560      5.1157203396 O
