lattice_vector      5.1783574452      0.0000000000      0.0000000000
lattice_vector      0.0000000000      5.6349115151      0.0000000000
lattice_vector      2.2999356964      0.0000000000      5.3119328017
atom      1.0715931087      3.0345120275      2.8916612544 C
atom      0.4554972284      4.3061291870      2.3844977171 C
atom     -0.2397258887      4.0737725366      1.5846721980 H
atom     -0.0564451921      4.7887694594      3.2061815681 H
atom      1.4941615935      5.2005464518      1.8812631995 N
atom      2.2508691229      5.2613251603      2.5497900590 H
atom      1.8617694992      4.8482261922      1.0059383754 H
atom      1.1160142080      6.1272079742      1.7313825249 H
atom      0.4081278207      1.9784140336      2.8514242379 O
atom      2.2213572112      3.0910624774      3.3653209426 O
atom      3.6607718313      0.2170562700      2.8916612544 C
atom      3.0446759510      1.4886734295      2.3844977171 C
atom      2.3494528339      1.2563167790      1.5846721980 H
atom      2.5327335305      1.9713137019      3.2061815681 H
atom      4.0833403161      2.3830906943      1.8812631995 N
atom      4.8400478456      2.4438694028      2.5497900590 H
atom      4.4509482219      2.0307704347      1.0059383754 H
atom      3.7051929306      3.3097522167      1.7313825249 H
atom      2.9973065433     -0.8390417239      2.8514242379 O
atom      4.8105359339      0.2736067198      3.3653209426 O
