lattice_vector      5.7532727385      0.0000000000      0.0000000000
lattice_vector      0.0000000000      4.9063090270      0.0000000000
lattice_vector      0.0000000000      0.0000000000      5.4911314032
atom      3.9505997518      2.8387526869     -0.1925686928 C
atom      4.2964309452      1.4032618432      0.0786618562 C
atom      3.5739371328      0.9849898388      0.7715520914 H
atom      4.2803600547      0.8651472144     -0.8596160335 H
atom      5.6342278162      1.3103856353      0.6563507246 N
atom      6.2817959330      1.8720428993      0.1192984456 H
atom      5.6247788372      1.6490379485      1.6106483788 H
atom      5.9525704408      0.3497712434      0.6500895516 H
atom      2.7547101764      3.1935408765     -0.1590777616 O
atom      4.8782606086      3.6199607556     -0.4730472720 O
atom      1.8026729867      2.0675563401      2.5529970087 C
atom      1.4568417932      3.5030471838      2.8242275578 C
atom      2.1793356056      3.9213191882      3.5171177930 H
atom      1.4729126837      4.0411618126      1.8859496681 H
atom      0.1190449223      3.5959233917      3.4019164262 N
atom     -0.5285231945      3.0342661277      2.8648641471 H
atom      0.1284939013      3.2572710785      4.3562140804 H
atom     -0.1992977024      4.5565377836      3.3956552531 H
atom      2.9985625621      1.7127681506      2.5864879400 O
atom      0.8750121298      1.2863482714      2.2725184296 O
