lattice_vector      5.2497205549      0.0000000000      0.0000000000
lattice_vector      0.0000000000      5.7750756652      0.0000000000
lattice_vector      1.5463962095      0.0000000000      5.1125531165
atom      2.1152750111     -0.0382133802      2.5358984913 C
atom      2.3554868357     -0.4137075661      1.1023359418 C
atom      1.5217403405     -0.0726890506      0.4976717289 H
atom      2.4543130400     -1.4893126229      1.0431906243 H
atom      3.5886630890      0.2034491409      0.6222892630 N
atom      4.3316364792      0.0570179740      1.2929433865 H
atom      3.4536911877      1.1995359174      0.4996010203 H
atom      3.8628857344     -0.2039906773     -0.2625587320 H
atom      0.9438065579      0.0195719439      2.9618922684 O
atom      3.1067856043      0.1731906713      3.2582031471 O
atom      4.7401352886      2.9257512128      2.5358984913 C
atom      4.9803471131      3.3012453987      1.1023359418 C
atom      4.1466006179      2.9602268832      0.4976717289 H
atom      5.0791733175      4.3768504555      1.0431906243 H
atom      6.2135233665      2.6840886917      0.6222892630 N
atom      6.9564967566      2.8305198586      1.2929433865 H
atom      6.0785514652      1.6880019152      0.4996010203 H
atom      6.4877460119      3.0915285099     -0.2625587320 H
atom      3.5686668354      2.8679658887      2.9618922684 O
atom      5.7316458817      2.7143471613      3.2582031471 O
