lattice_vector      4.8884599884      0.0000000000      0.0000000000
lattice_vector      0.0000000000      5.8769047477      0.0000000000
lattice_vector     -0.7590550857      0.0000000000      5.3952426470
atom      3.9014925328      4.8058374363      0.8750295681 C
atom      3.6443191716      4.8415504602      2.3670316702 C
atom      2.5501930175      4.6656500790      2.8370210009 H
atom      3.9542053704      5.8123014583      2.6449288758 H
atom      4.4690647968      3.8128963401      2.7931410804 N
atom      5.4608294740      3.8443280372      2.2141210492 H
atom      4.0714495165      2.8964406615      2.7065442840 H
atom      4.4673726701      3.9624796769      3.7570587348 H
atom      2.9619325184      5.1729345765      0.3716487525 O
atom      5.0657628939      4.4360965853      0.1903772288 O
atom      0.2279123699      1.0710673114      4.5202130789 C
atom      0.4850857311      1.0353542875      3.0282109768 C
atom      1.5792118853      1.2112546687      2.5582216461 H
atom      0.1751995324      0.0646032893      2.7503137712 H
atom     -0.3396598940      2.0640084076      2.6021015666 N
atom     -1.3314245712      2.0325767104      3.1811215978 H
atom      0.0579553863      2.9804640861      2.6886983630 H
atom     -0.3379677674      1.9144250708      1.6381839122 H
atom      1.1674723844      0.7039701712      5.0235938945 O
atom     -0.9363579912      1.4408081624      5.2048654182 O
