lattice_vector      5.6064292667      0.0000000000      0.0000000000
lattice_vector      0.0000000000      5.2612674866      0.0000000000
lattice_vector      1.0303237047      0.0000000000      5.2547852079
atom      1.3349966438      1.5856367070      1.1272822644 C
atom      2.7689056129      1.1567161547      1.2444633874 C
atom      3.2025996429      1.0802288348      0.2529469554 H
atom      3.2978144297      1.8918667728      1.8360714144 H
atom      2.8516279575     -0.1390001543      1.9125405886 N
atom      2.2770056956     -0.1353523431      2.7450214881 H
atom      2.5226199423     -0.8702945639      1.2941386983 H
atom      3.8082839954     -0.3361575474      2.1773035512 H
atom      0.9947871683      2.3190426754      0.1767448495 O
atom      0.5400752681      1.2131914362      2.0098316804 O
atom      5.3017563276      3.6756307795      4.1275029435 C
atom      3.8678473585      4.1045513318      4.0103218205 C
atom      3.4341533285      4.1810386518      5.0018382525 H
atom      3.3389385417      3.3694007137      3.4187137935 H
atom      3.7851250139      5.4002676409      3.3422446193 N
atom      4.3597472757      5.3966198297      2.5097637198 H
atom      4.1141330291      6.1315620505      3.9606465095 H
atom      2.8284689760      5.5974250340      3.0774816567 H
atom      5.6419658030      2.9422248112      5.0780403583 O
atom      6.0966777033      4.0480760504      3.2449535274 O
