lattice_vector      5.5973449379      0.0000000000      0.0000000000
lattice_vector     -0.6106570661      5.2496101798      0.0000000000
lattice_vector     -1.0787856535      0.9473819954      5.2750013087
atom      4.0774626647      4.3053828664      4.1943781801 C
atom      3.3172993580      4.9349684376      3.0631960802 C
atom      2.4109794521      4.3673641635      2.8802882543 H
atom      3.0798838832      5.9542027878      3.3370322670 H
atom      4.1359421193      4.9466230239      1.8541720579 N
atom      5.0621480243      5.2926075394      2.0678677174 H
atom      4.2177743339      4.0087901326      1.4810344935 H
atom      3.7176147295      5.5453013017      1.1536381517 H
atom      3.4485250983      3.7169896608      5.0973616527 O
atom      5.3166548447      4.4230746624      4.2021452398 O
atom      2.6280416086      0.7029532131      1.5541380179 C
atom      1.9744228523      1.2115428601      0.3019725816 C
atom      2.4636050640      2.1278604328     -0.0112502248 H
atom      2.0635876186      0.4514235806     -0.4625268304 H
atom      0.5592425566      1.4750850384      0.5466379396 N
atom      0.1402262928      0.6902308673      1.0279463637 H
atom      0.4542455656      2.3021143845      1.1214916408 H
atom      0.0729928229      1.6179991518     -0.3293175340 H
atom      3.8417417287      0.9250425230      1.7405690652 O
atom      1.9323597722      0.0465411338      2.3507928427 O
