lattice_vector      4.8633631889      0.0000000000      0.0000000000
lattice_vector      0.0000000000      5.4774126597      0.0000000000
lattice_vector      0.7182765547      0.0000000000      5.8186138140
atom      1.0347291378      3.8397495645      1.0331397145 C
atom      1.6938968556      3.7604909538      2.5027311641 C
atom      1.0304933124      3.1988143008      2.9972600557 H
atom      1.8441117502      4.7672257728      2.8949380740 H
atom      3.0302762407      3.0975231023      2.7204948103 N
atom      3.5786214400      3.4901181457      2.1051029141 H
atom      2.8988342815      2.1070491707      2.5270603672 H
atom      3.5675378621      3.2225007034      3.6786827648 H
atom     -0.2475128240      3.8496865193      0.6514384070 O
atom      1.8023348817      3.9239677978      0.2472232774 O
atom      4.4428434015      1.6376630952      3.9424466215 C
atom      4.1465019915      1.7169217059      5.4120380711 C
atom      4.9319993941      2.2785983589      5.9065669627 H
atom      4.0931187606      0.7101868869      5.8042449810 H
atom      2.8638861062      2.3798895573      5.6298017173 N
atom      2.1636072729      1.9872945139      5.0144098211 H
atom      2.9475711839      3.3703634890      5.4363672742 H
atom      2.5631907753      2.2549119562      6.5879896718 H
atom      5.6308474198      1.6277261404      3.5607453140 O
atom      3.4812033502      1.5534448619      3.1565301844 O
