lattice_vector      5.1282455661      0.0000000000      0.0000000000
lattice_vector      0.0000000000      5.2661175965      0.0000000000
lattice_vector      1.1456300897      0.0000000000      5.7394771598
atom      2.4763727329      3.6523450305      1.1550602168 C
atom      2.7253039704      4.6015005818      2.2912539353 C
atom      2.0343721168      5.4349449579      2.2203363623 H
atom      2.5827867863      4.0663677888      3.2205078143 H
atom      4.0963949397      5.1006431306      2.2363252833 N
atom      4.7384118301      4.3313587038      2.0976015235 H
atom      4.1985621954      5.7515019451      1.4672977540 H
atom      4.3327996799      5.5710889225      3.1005907486 H
atom      1.3213059837      3.5421935533      0.6958917994 O
atom      3.4370184355      2.9833178772      0.7318918726 O
atom      3.0491877778      1.6137725660      4.0247987967 C
atom      3.2981190153      0.6646170147      5.1609925152 C
atom      2.6071871617     -0.1688273614      5.0900749422 H
atom      3.1556018312      1.1997498077      6.0902463942 H
atom      4.6692099845      0.1654744659      5.1060638632 N
atom      5.3112268749      0.9347588927      4.9673401034 H
atom      4.7713772402     -0.4853843486      4.3370363339 H
atom      4.9056147248     -0.3049713260      5.9703293285 H
atom      1.8941210286      1.7239240432      3.5656303793 O
atom      4.0098334803      2.2827997193      3.6016304525 O
