lattice_vector      5.4909769893      0.0000000000      0.0000000000
lattice_vector      0.0000000000      5.4389938561      0.0000000000
lattice_vector      2.0055256400      0.0000000000      5.1899539713
atom     -0.3654846352     -0.0850210102      0.4439507908 C
atom      1.0407881693      0.1727503360     -0.0140338377 C
atom      1.4098118767      1.0794827656      0.4536235807 H
atom      1.6514455399     -0.6755230234      0.2647508620 H
atom      1.0751695103      0.3258105337     -1.4657367639 N
atom      0.5516127300     -0.4205761791     -1.9039418200 H
atom      0.6623175828      1.2114595321     -1.7315145342 H
atom      2.0302420640      0.2936011726     -1.7988436734 H
atom     -0.7105478740      0.2813045145      1.5858286957 O
atom     -1.1307924601     -0.6877332063     -0.3310013930 O
atom      4.1795326456      3.1816375167      2.2845750986 C
atom      3.5866312847      2.9043170021      3.6356341262 C
atom      4.2990065473      2.3437971955      4.2317756264 H
atom      3.3553802393      3.8498617550      4.1075017981 H
atom      2.3562325658      2.1309363094      3.4940283937 N
atom      1.7685368786      2.5446947703      2.7822375441 H
atom      2.5731653379      1.1795682433      3.2232929867 H
atom      1.8482878451      2.1174403987      4.3692262342 H
atom      5.4150256333      3.3215976915      2.1791407330 O
atom      3.4033024084      3.2922469030      1.3177549872 O
