lattice_vector      5.1892257529      0.0000000000      0.0000000000
lattice_vector      0.0000000000      5.5862035029      0.0000000000
lattice_vector     -2.3618846929      0.0000000000      5.3470270437
atom      0.5280337785      2.7419296040     -0.2405934106 C
atom     -0.8990480029      2.2782787335     -0.1930051025 C
atom     -0.9239688317      1.2160755653      0.0264237891 H
atom     -1.3556378812      2.4799584441     -1.1527144349 H
atom     -1.6282925333      3.0057234736      0.8419236157 N
atom     -1.4428744023      3.9969733972      0.7627263691 H
atom     -1.3344504189      2.6927157038      1.7590613553 H
atom     -2.6235658602      2.8510944146      0.7435259644 H
atom      1.4138088682      1.9477749115     -0.6172484165 O
atom      0.7692388539      3.9224241606      0.0720751974 O
atom     -1.6062206551      0.3601790586      2.8430212060 C
atom     -0.5463290031     -0.6294001232      3.2318166745 C
atom      0.1529211323     -0.1567947710      3.9135344209 H
atom     -1.0264374727     -1.4757079494      3.7045215997 H
atom      0.1682951295     -1.0908568794      2.0450475740 N
atom     -0.4917389392     -1.3461280893      1.3222612046 H
atom      0.7675035265     -0.3546915019      1.6922466115 H
atom      0.7350189193     -1.8987131844      2.2694435981 H
atom     -1.9410451795      1.2447720482      3.6569843251 O
atom     -2.1360472619      0.2386457382      1.7231898062 O
