lattice_vector      5.0695009763      0.0000000000      0.0000000000
lattice_vector      0.0000000000      5.7468622141      0.0000000000
lattice_vector     -0.7205971818      0.0000000000      5.3202948617
atom      2.1561081162      0.0598329126      0.5295540487 C
atom      2.9791243031     -0.8608497251     -0.5279164440 C
atom      3.6927460042     -1.4352135643     -0.1187487157 H
atom      2.2664949047     -1.5160076423     -0.8475975248 H
atom      3.7578016909     -0.0880810408     -1.6750505458 N
atom      3.1322331591      0.5972720159     -1.9367250505 H
atom      4.5535103493      0.3947458367     -1.4415490868 H
atom      4.1402412305     -0.6992639122     -2.4638033313 H
atom      1.8919343351     -0.2875170639      1.7265861633 O
atom      1.7386311812      1.1315047882      0.1633813425 O
atom     -0.2351934975      2.9332640197     -0.5295540487 C
atom      0.3013685449      2.0125813819      0.5279164440 C
atom      1.1258281297      1.4382175428      0.1187487157 H
atom     -0.4978580411      1.3574234648      0.8475975248 H
atom      0.7693031553      2.7853500662      1.6750505458 N
atom      0.0728506160      3.4707031230      1.9367250505 H
atom      1.6282641325      3.2681769437      1.4415490868 H
atom      0.9380804641      2.1741671949      2.4638033313 H
atom     -0.1751078189      2.5859140431     -1.7265861633 O
atom     -0.7518615588      4.0049358952     -0.1633813425 O
