lattice_vector      5.5052542294      0.0000000000      0.0000000000
lattice_vector      0.8365001689      5.0932482954      0.0000000000
lattice_vector     -0.4574405361     -0.8665698485      5.5278909934
atom      4.5770233361      2.4585504565      4.1275141793 C
atom      4.0975411955      3.8423783061      3.7974891090 C
atom      4.9517585601      4.5038214298      3.6982351675 H
atom      3.5398523749      3.7986190681      2.8716061067 H
atom      3.2214747101      4.3352985080      4.8565396622 N
atom      2.5375951846      3.6292182548      5.0952611926 H
atom      3.7644625327      4.5538954991      5.6828799465 H
atom      2.7363851570      5.1689697455      4.5502038462 H
atom      5.6853593531      2.0796243962      3.6972183593 O
atom      3.8279150907      1.7256792145      4.7992622901 O
atom      1.3072905261      1.7681279903      1.4003768141 C
atom      1.7867726666      0.3843001407      1.7304018844 C
atom      0.9325553021     -0.2771429830      1.8296558259 H
atom      2.3444614872      0.4280593788      2.6562848867 H
atom      2.6628391521     -0.1086200612      0.6713513312 N
atom      3.3467186775      0.5974601921      0.4326298008 H
atom      2.1198513295     -0.3272170523     -0.1549889530 H
atom      3.1479287052     -0.9422912987      0.9776871472 H
atom      0.1989545091      2.1470540507      1.8306726341 O
atom      2.0563987715      2.5009992324      0.7286287033 O
