lattice_vector      5.5588030407      0.0000000000      0.0000000000
lattice_vector      0.0000000000      4.8394702311      0.0000000000
lattice_vector      0.1937271783      0.0000000000      5.7617258349
atom      0.9778607849      3.0930195512      1.5893347355 C
atom      2.1267083354      2.8754189054      0.6477411650 C
atom      1.7462297120      2.7598506671     -0.3616773092 H
atom      2.7863522516      3.7304547273      0.7107861688 H
atom      2.8668048858      1.6757406629      1.0286349787 N
atom      3.0501387737      1.6846430534      2.0233901905 H
atom      2.3265659090      0.8488253114      0.8054500001 H
atom      3.7491751635      1.6368835804      0.5345964587 H
atom     -0.0455878475      3.6754730275      1.1764800112 O
atom      1.1056422494      2.7064020892      2.7656458256 O
atom      4.7746694341      1.7464506799      4.1723910993 C
atom      3.6258218835      1.9640513257      5.1139846699 C
atom      4.0063005070      2.0796195640      6.1234031441 H
atom      2.9661779673      1.1090155038      5.0509396661 H
atom      2.8857253331      3.1637295682      4.7330908562 N
atom      2.7023914452      3.1548271777      3.7383356444 H
atom      3.4259643099      3.9906449197      4.9562758348 H
atom      2.0033550555      3.2025866507      5.2271293762 H
atom      5.7981180664      1.1639972036      4.5852458237 O
atom      4.6468879695      2.1330681419      2.9960800093 O
