lattice_vector      5.3721111293      0.0000000000      0.0000000000
lattice_vector      0.0000000000      5.0230081218      0.0000000000
lattice_vector      1.7269086615      0.0000000000      5.7441110801
atom      0.4907452689      2.1104552506      0.9763182332 C
atom      1.7530184890      2.5554586350      0.2962906652 C
atom      1.5745586050      2.6417719132     -0.7703619232 H
atom      2.5243376269      1.8236639787      0.4956255442 H
atom      2.1778143766      3.8488095896      0.8243462008 N
atom      2.1508659171      3.8344581455      1.8354329008 H
atom      1.5593762463      4.5792033894      0.4934113708 H
atom      3.1224505439      4.0558032841      0.5260554686 H
atom     -0.3079735553      1.3777378524      0.3579966076 O
atom      0.3038838156      2.4693623334      2.1535087226 O
atom      5.7065316738     -0.0638009740      5.0379836623 C
atom      5.4247455656     -0.1076919852      3.5640537603 C
atom      4.6275931958      0.5901365515      3.3303250940 H
atom      5.1369473907     -1.1168582111      3.3014766013 H
atom      6.6236321292      0.2546052834      2.8134123123 N
atom      7.4212557501     -0.2551696328      3.1699997386 H
atom      6.8046686411      1.2466584339      2.9056891428 H
atom      6.5046023967      0.0304767097      1.8337391300 H
atom      4.7765032589      0.1971533976      5.8279824863 O
atom      6.8629197011     -0.3222660419      5.4193909043 O
