lattice_vector      4.9172399245      0.0000000000      0.0000000000
lattice_vector      0.0000000000      5.8774158138      0.0000000000
lattice_vector      0.0000000000      0.0000000000      5.3631986326
atom      0.5255742911      3.1800358673      0.0696844975 C
atom     -0.9629787403      3.3665893443      0.0130553500 C
atom     -1.3064271214      3.7965224028      0.9480668106 H
atom     -1.1934563752      4.0227702458     -0.8154962234 H
atom     -1.6215234068      2.0812234058     -0.2018963023 N
atom     -1.1664120299      1.5819235444     -0.9547586944 H
atom     -1.5690551306      1.5191594643      0.6388116678 H
atom     -2.5938271870      2.2220529834     -0.4446999843 H
atom      1.2125671904      3.9696949558      0.7491162151 O
atom      1.0236427427      2.2530571791     -0.5952570597 O
atom      2.1190816446      0.3703035394     -0.2948092073 C
atom      3.4980318785     -0.1679554438     -0.0446638355 C
atom      3.9007928688     -0.5665374618     -0.9698457724 H
atom      4.1174407542      0.6384465138      0.3244425893 H
atom      3.4484381183     -1.2265003645      0.9598629170 N
atom      2.8943734064     -0.9258406847      1.7509662923 H
atom      3.0275384788     -2.0592759395      0.5664331005 H
atom      4.3820675890     -1.4486698929      1.2810138955 H
atom      1.8443694608      0.8428811596     -1.4165720109 O
atom      1.3050547979      0.3511629293      0.6467336091 O
