lattice_vector      4.9568955416      0.0000000000      0.0000000000
lattice_vector      0.0000000000      5.7455155930      0.0000000000
lattice_vector      0.0000000000      0.0000000000      5.4424308982
atom      0.1533715224      0.0299578174      2.1600531246 C
atom     -0.0546911994      0.7471221651      3.4624295639 C
atom      0.8730995071      1.2230028220      3.7620754581 H
atom     -0.8342242825      1.4844920383      3.3252987209 H
atom     -0.4715662241     -0.1981624531      4.4942740731 N
atom     -1.2134771760     -0.7886370112      4.1419440658 H
atom      0.3089924373     -0.7839593049      4.7645126895 H
atom     -0.8089786193      0.2986750651      5.3088086611 H
atom      0.9828674053      0.4795370913      1.3433749535 O
atom     -0.5395954431     -0.9785532823      1.9315556592 O
atom      2.3250762484      2.8427999791     -0.5611623245 C
atom      2.5331389703      2.1256356313      0.7412141148 C
atom      1.6053482637      1.6497549745      1.0408600090 H
atom      3.3126720533      1.3882657582      0.6040832718 H
atom      2.9500139949      3.0709202495      1.7730586240 N
atom      3.6919249469      3.6613948076      1.4207286167 H
atom      2.1694553335      3.6567171014      2.0432972404 H
atom      3.2874263901      2.5740827314      2.5875932120 H
atom      1.4955803655      2.3932207052     -1.3778404956 O
atom      3.0180432139      3.8513110788     -0.7896597899 O
