lattice_vector      5.8952297103      0.0000000000      0.0000000000
lattice_vector      0.0000000000      4.9592002682      0.0000000000
lattice_vector      2.3537342295      0.0000000000      5.3017509039
atom      2.4013965245      0.0856692537     -0.5750798699 C
atom      4.3147474092      0.2554113282      0.6903011859 C
atom      5.1802609931     -0.2284110081      0.5786774879 H
atom      4.6034153229      1.3138939039      0.8759936317 H
atom      4.5945320114     -0.3428544465      1.8128546076 N
atom      3.6172844677     -0.0470665557      1.8016177667 H
atom      4.5670641425     -1.3528373821      1.7464937120 H
atom      5.7906924865     -0.0563610271      2.6885449155 H
atom      2.0379786405      0.0142772637     -1.6646646377 O
atom      1.2367226945      0.0530838199     -0.4887071005 O
atom      1.9145396756      2.2945345043      3.0382510440 C
atom      0.1196746325      2.1978868666      1.6493705169 C
atom      0.2628620828      2.4183149633      0.9301554976 H
atom     -0.3895851210      1.1956076977      1.5038828151 H
atom     -1.1221399698      3.1495245024      1.4840659532 N
atom     -1.0594446262      3.0853289642      2.2692624464 H
atom     -0.7997006984      4.0932943673      1.4371636684 H
atom     -2.3886868283      2.9504789774      0.6339680597 H
atom      3.2856046292      2.0140220039      3.2301430409 O
atom      1.9605814130      2.6250145963      3.9581597300 O
