lattice_vector      5.6000792746      0.0000000000      0.0000000000
lattice_vector      0.0000000000      5.2039832384      0.0000000000
lattice_vector      1.0871476393      0.0000000000      5.3186527210
atom      0.2874623656      0.4824763141      2.8616799584 C
atom      1.5346038611     -0.1761194604      2.3472007230 C
atom      2.3157623808     -0.0996268536      3.0961906460 H
atom      1.8319479791      0.3221099401      1.4342138856 H
atom      1.2752737047     -1.5834956063      2.0572159982 N
atom      0.4225133772     -1.6738546358      1.5206868118 H
atom      1.1722917549     -2.1027721083      2.9204687526 H
atom      2.0396093294     -1.9778775114      1.5239100779 H
atom      0.3881099043      1.4490802764      3.6444283417 O
atom     -0.8089045877      0.0524620620      2.4584725778 O
atom      3.5997249110      2.1195153051      2.4569727626 C
atom      2.3525834156      2.7781110796      2.9714519980 C
atom      1.5714248958      2.7016184728      2.2224620750 H
atom      2.0552392975      2.2798816791      3.8844388354 H
atom      2.6119135719      4.1854872255      3.2614367228 N
atom      3.4646738994      4.2758462550      3.7979659092 H
atom      2.7148955217      4.7047637275      2.3981839685 H
atom      1.8475779472      4.5798691307      3.7947426431 H
atom      3.4990773723      1.1529113428      1.6742243793 O
atom      4.6960918643      2.5495295573      2.8601801432 O
