lattice_vector      5.5978855711      0.0000000000      0.0000000000
lattice_vector      0.0000000000      5.1549448005      0.0000000000
lattice_vector     -2.1810193620      0.0000000000      5.3713526000
atom      2.5173356412      1.4291033846      2.0050573705 C
atom      3.4274769805      0.7843080737      1.0002285608 C
atom      2.8481403127      0.1245584191      0.3629334367 H
atom      3.8968967253      1.5638212861      0.4152539628 H
atom      4.4631857384      0.0144186696      1.6833307208 N
atom      4.8732371208      0.5684444154      2.4236967350 H
atom      4.0632596378     -0.8232542313      2.0880799155 H
atom      5.1911333981     -0.2489912630      1.0315112281 H
atom      1.3291702920      1.6516785762      1.6954260322 O
atom      2.9976763214      1.7471217926      3.1085273830 O
atom      0.8995305678      4.0065757849      3.3662952294 C
atom     -0.0106107715      3.3617804739      4.3711240392 C
atom      0.5687258963      2.7020308193      5.0084191633 H
atom     -0.4800305163      4.1412936863      4.9560986372 H
atom     -1.0463195294      2.5918910698      3.6880218792 N
atom     -1.4563709118      3.1459168157      2.9476558649 H
atom     -0.6463934288      1.7542181690      3.2832726845 H
atom     -1.7742671891      2.3284811373      4.3398413719 H
atom      2.0876959170      4.2291509764      3.6759265677 O
atom      0.4191898876      4.3245941929      2.2628252170 O
