lattice_vector      5.5846609553      0.0000000000      0.0000000000
lattice_vector      0.0000000000      5.5140495424      0.0000000000
lattice_vector      0.0000000000      0.0000000000      5.0334321889
atom     -0.2714630446      2.3923858929      0.3642385935 C
atom      1.0128144330      2.8217407508     -0.2839010166 C
atom      1.7315690115      3.0860872448      0.4845769880 H
atom      1.3822381646      2.0020797163     -0.8854597591 H
atom      0.7774726982      3.9756992202     -1.1470609122 N
atom     -0.0296470511      3.8090438355     -1.7335864372 H
atom      0.6057656627      4.8004864000     -0.5851877171 H
atom      1.5820032604      4.1407061061     -1.7383853081 H
atom     -0.2337172899      1.8374162002      1.4812578757 O
atom     -1.3320804279      2.5819054080     -0.2592051206 O
atom      2.8045612578     -0.5710058493     -0.1145695302 C
atom      3.3618952379      0.7949332999     -0.3927569904 C
atom      3.2407666890      1.0240305506     -1.4462692025 H
atom      4.4086632110      0.7985346430     -0.1198928003 H
atom      2.6595907782      1.7952164118      0.4061504065 N
atom      2.5929920735      1.4850656150      1.3666708873 H
atom      1.7240927248      1.9344342524      0.0443210678 H
atom      3.1575482049      2.6758921947      0.3814561651 H
atom      2.8468117134     -1.4395068979     -1.0095941143 O
atom      2.3449991663     -0.7941253788      1.0205645168 O
