lattice_vector      5.4286321550      0.0000000000      0.0000000000
lattice_vector      0.0000000000      5.8947860537      0.0000000000
lattice_vector      2.0217627667      0.0000000000      4.8436553795
atom      1.1505179178     -0.2288109259      2.9390033345 C
atom      1.4161711301     -0.1634855911      1.4628732051 C
atom      2.4447164393      0.1389699416      1.2965576786 H
atom      1.2335285303     -1.1420779825      1.0395652348 H
atom      0.5181024676      0.8009290606      0.8340425892 N
atom     -0.4303755407      0.6459829966      1.1496526069 H
atom      0.7926392808      1.7437532416      1.0813698770 H
atom      0.5472242484      0.7019725178     -0.1726950943 H
atom      2.0823965354     -0.5297320433      3.7124352331 O
atom     -0.0089798060     -0.0073960417      3.3340342483 O
atom      3.8648339953      2.7185821010      2.9390033345 C
atom      4.1304872076      2.7839074358      1.4628732051 C
atom      5.1590325168      3.0863629684      1.2965576786 H
atom      3.9478446078      1.8053150444      1.0395652348 H
atom      3.2324185451      3.7483220875      0.8340425892 N
atom      2.2839405368      3.5933760235      1.1496526069 H
atom      3.5069553583      4.6911462685      1.0813698770 H
atom      3.2615403259      3.6493655447     -0.1726950943 H
atom      4.7967126129      2.4176609836      3.7124352331 O
atom      2.7053362715      2.9399969852      3.3340342483 O
