lattice_vector      5.0351835705      0.0000000000      0.0000000000
lattice_vector      0.0000000000      5.7862051955      0.0000000000
lattice_vector      0.0000000000      0.0000000000      5.3201338481
atom      0.4055071801      2.6065736402      5.6220507332 C
atom      0.0620578187      3.4091284272      4.4006795621 C
atom      0.6853218886      4.2965378300      4.3676325102 H
atom      0.2308718173      2.7921865583      3.5282830985 H
atom     -1.3433763140      3.8032912621      4.4386459258 N
atom     -1.9194104707      3.0052770382      4.6722833525 H
atom     -1.4839738845      4.5212998524      5.1387563977 H
atom     -1.6314268083      4.1607197943      3.5367407223 H
atom      1.5734035965      2.6352143616      6.0606232452 O
atom     -0.4912094797      1.9130463434      6.1362764285 O
atom      2.9230989654      0.2865289576     -0.3019168851 C
atom      2.5796496040     -0.5160258294      0.9194542860 C
atom      3.2029136739     -1.4034352322      0.9525013379 H
atom      2.7484636026      0.1009160395      1.7918507496 H
atom      1.1742154712     -0.9101886644      0.8814879222 N
atom      0.5981813145     -0.1121744405      0.6478504956 H
atom      1.0336179008     -1.6281972547      0.1813774504 H
atom      0.8861649770     -1.2676171965      1.7833931257 H
atom      4.0909953818      0.2578882361     -0.7404893971 O
atom      2.0263823055      0.9800562543     -0.8161425805 O
