lattice_vector      5.2079301608      0.0000000000      0.0000000000
lattice_vector      0.0000000000      5.8878525264      0.0000000000
lattice_vector      0.0000000000      0.0000000000      5.0548657156
atom     -0.0499349606      0.3868815270     -0.4326114110 C
atom      0.6778477165     -0.7946285983      0.1402458018 C
atom      0.6354563237     -1.6182740530     -0.5646348911 H
atom      1.7033538535     -0.5057928336      0.3276013181 H
atom      0.0612704134     -1.2006571213      1.4000172710 N
atom     -0.0876502440     -0.3911553269      1.9880291596 H
atom     -0.8327002941     -1.6420990779      1.2228053685 H
atom      0.6605540736     -1.8532845480      1.8889935234 H
atom     -0.0677909722      0.5494840879     -1.6697006351 O
atom     -0.5866935635      1.1825640616      0.3600350749 O
atom      2.5540301198      2.5570447361      0.4326114110 C
atom      3.2818127969      3.7385548614     -0.1402458018 C
atom      3.2394214041      4.5622003162      0.5646348911 H
atom      4.3073189339      3.4497190968     -0.3276013181 H
atom      2.6652354938      4.1445833844     -1.4000172710 N
atom      2.5163148364      3.3350815901     -1.9880291596 H
atom      1.7712647863      4.5860253411     -1.2228053685 H
atom      3.2645191540      4.7972108112     -1.8889935234 H
atom      2.5361741082      2.3944421753      1.6697006351 O
atom      2.0172715169      1.7613622016     -0.3600350749 O
