lattice_vector      5.4789632594      0.0000000000      0.0000000000
lattice_vector      0.0000000000      5.0183054615      0.0000000000
lattice_vector      1.2665586565      0.0000000000      5.6373658068
atom      2.9862450648      0.2825389528      3.1504970888 C
atom      3.5382524740      0.0256727035      1.7782337257 C
atom      2.7460647164     -0.3456184456      1.1366520115 H
atom      3.9380544799      0.9536460462      1.3919503366 H
atom      4.6116734469     -0.9618355974      1.8463927852 N
atom      5.2538720384     -0.7226856120      2.5904470520 H
atom      4.2274916624     -1.8802545073      2.0317835825 H
atom      5.1203914003     -0.9871666213      0.9719068665 H
atom      1.7933484953      0.6281084961      3.2718545922 O
atom      3.7575139315      0.1687188556      4.1209084789 O
atom      3.1259975228      2.7916916835     -0.3318141854 C
atom      2.5739901137      2.5348254342      1.0404491777 C
atom      3.3661778713      2.1635342851      1.6820308918 H
atom      2.1741881077      3.4627987769      1.4267325668 H
atom      1.5005691408      1.5473171334      0.9722901182 N
atom      0.8583705493      1.7864671188      0.2282358514 H
atom      1.8847509252      0.6288982234      0.7868993209 H
atom      0.9918511874      1.5219861094      1.8467760369 H
atom      4.3188940924      3.1372612269     -0.4531716888 O
atom      2.3547286562      2.6778715864     -1.3022255755 O
