lattice_vector      5.8919549561      0.0000000000      0.0000000000
lattice_vector      0.0000000000      5.1068512320      0.0000000000
lattice_vector     -1.4722172890      0.0000000000      5.1513264583
atom      3.2676156653      2.5057678572     -0.3136818886 C
atom      2.5948080707      1.8577302171      1.0368788981 C
atom      1.9559679401      0.9727935137      1.0570392832 H
atom      3.5275961700      1.5957139395      1.2146193431 H
atom      1.5638349726      2.7883782978      2.0729402296 N
atom      2.0800697352      3.6900471110      1.9344830019 H
atom      0.5821619304      2.9050760696      2.0320076984 H
atom      1.2955915578      2.4393567403      2.9880429456 H
atom      3.6367919411      1.7929574241     -1.3172947835 O
atom      3.4649144031      3.7385838739     -0.3828454570 O
atom     -1.1076644327     -0.4512714613      3.8140597679 C
atom     -0.8374170233      1.0050773488      3.9397865122 C
atom      0.3909789514      1.2041842861      3.4052898475 H
atom     -1.4134398633      1.5839749248      3.5239358732 H
atom     -1.4751631021      1.3614898230      5.3460064300 N
atom     -2.5569710048      0.9961758328      5.8880796886 H
atom     -0.8175322853      0.9696757117      5.7041741614 H
atom     -1.5099816380      2.3676386669      5.4516980398 H
atom     -0.1816518417     -1.0688963898      2.7834439550 O
atom     -2.2768396043     -0.9828647098      4.7400497176 O
