lattice_vector      5.3985329211      0.0000000000      0.0000000000
lattice_vector      0.0000000000      5.8563798270      0.0000000000
lattice_vector     -2.0479422714      0.0000000000      4.9026027905
atom      0.5305614269      0.0139392932      2.5556864600 C
atom     -0.8557210018     -0.4811374912      2.8505070712 C
atom     -0.8598788565     -1.5659474374      2.8358186589 H
atom     -1.5259815559     -0.0872715244      2.0983027005 H
atom     -1.2872171317     -0.0110731566      4.1638621252 N
atom     -1.0955295292      0.9778086478      4.2565828796 H
atom     -0.7886019128     -0.5080876206      4.8917482231 H
atom     -2.2808036870     -0.1632227369      4.2813248910 H
atom      1.2722173532     -0.6599030666      1.8120258253 O
atom      0.8778633043      1.1041607690      3.0458981336 O
atom      4.3523050580      3.2965005218      0.3693121839 C
atom      4.9513695587      1.9317233380      0.1895786312 C
atom      5.6724765508      1.7496604453      0.9794542326 H
atom      4.1540612382      1.2015300466      0.2257480198 H
atom      5.6175801866      1.8433800910     -1.1067275659 N
atom      5.0122736671      2.2065004021     -1.8312799488 H
atom      6.4724439504      2.3860987760     -1.0956343387 H
atom      5.8410181272      0.8798392907     -1.3207973020 H
atom      4.2329794146      3.7620127412      1.5209232046 O
atom      3.9663909284      3.9032751937     -0.6467605139 O
