lattice_vector      4.8733422942      0.0000000000      0.0000000000
lattice_vector      0.0000000000      5.8665949761      0.0000000000
lattice_vector      0.0000000000      0.0000000000      5.4214901831
atom      1.9375689109      4.5668758573      1.6205374652 C
atom      3.3564600898      4.9370181222      1.2987584823 C
atom      3.3692824006      5.8864693287      0.7739502778 H
atom      3.9096950253      5.0064897086      2.2257405912 H
atom      3.9646071827      3.9090348410      0.4588427880 N
atom      3.7781336346      2.9929293940      0.8451159094 H
atom      3.5788722055      3.9516664267     -0.4764912489 H
atom      4.9662832896      4.0445153572      0.4093327330 H
atom      1.1049604232      5.4723258475      1.8304698352 O
atom      1.6522408836      3.3575636804      1.6957765566 O
atom      1.9375689109      1.2997191189      3.8009527179 C
atom      3.3564600898      0.9295768539      4.1227317008 C
atom      3.3692824006     -0.0198743525      4.6475399053 H
atom      3.9096950253      0.8601052675      3.1957495919 H
atom      3.9646071827      1.9575601351      4.9626473951 N
atom      3.7781336346      2.8736655821      4.5763742738 H
atom      3.5788722055      1.9149285495      5.8979814321 H
atom      4.9662832896      1.8220796189      5.0121574501 H
atom      1.1049604232      0.3942691286      3.5910203479 O
atom      1.6522408836      2.5090312958      3.7257136265 O
