lattice_vector 6.23890260641 0 0
lattice_vector -2.85324721848 5.98810106598 0
lattice_vector -0.813635271439 -2.65948685453 14.8019766846
atom 0.01029 1.05467 13.43631 O
atom 0.55410 -0.19457 13.68859 C
atom 1.63620 -0.22107 13.72606 H
atom -0.47112 -1.07840 13.82871 C
atom -1.19199 -2.39537 14.08938 C
atom -1.06416 -2.82084 15.09385 H
atom -1.02097 -3.17514 13.33864 H
atom -2.54402 -1.59946 13.90077 C
atom -3.17317 -1.58259 14.79943 H
atom -3.14523 -1.92712 13.04308 H
atom -1.68933 -0.35918 13.66028 C
atom -1.37146 0.94343 13.42491 C
atom -1.89718 1.87255 13.23884 H
atom -2.61274 0.70046 6.72302 O
atom -3.16057 1.94507 6.46619 C
atom -4.23846 1.99369 6.56292 H
atom -2.14230 2.80151 6.17521 C
atom -1.42819 4.09320 5.79085 C
atom -1.50480 4.91464 6.51409 H
atom -1.65364 4.47469 4.78669 H
atom -0.07656 3.27850 5.88479 C
atom 0.60391 3.63850 6.66796 H
atom 0.46703 3.21035 4.93320 H
atom -0.92462 2.06610 6.25603 C
atom -1.23831 0.78290 6.58746 C
atom -0.70851 -0.14888 6.74256 H
atom 4.26675 -1.99136 3.23437 O
atom 3.72299 -0.74211 2.98226 C
atom 2.64087 -0.71560 2.94483 H
atom 4.74821 0.14172 2.84211 C
atom 5.46908 1.45869 2.58146 C
atom 5.34117 1.88422 1.57704 H
atom 5.29818 2.23840 3.33223 H
atom 6.82108 0.66276 2.76989 C
atom 7.45010 0.64593 1.87120 H
atom 7.42240 0.99031 3.62747 H
atom 5.96640 -0.57752 3.01042 C
atom 5.64852 -1.88013 3.24578 C
atom 6.17423 -2.80927 3.43177 H
atom 4.03656 4.35095 9.94768 O
atom 4.58439 3.10635 10.20455 C
atom 5.66228 3.05772 10.10781 H
atom 3.56612 2.24991 10.49555 C
atom 2.85202 0.95822 10.87990 C
atom 2.92863 0.13677 10.15667 H
atom 3.07746 0.57673 11.88407 H
atom 1.50038 1.77292 10.78596 C
atom 0.81992 1.41291 10.00279 H
atom 0.95679 1.84106 11.73755 H
atom 2.34844 2.98531 10.41473 C
atom 2.66213 4.26851 10.08329 C
atom 2.13233 5.20029 9.92818 H
