lattice_vector 4.75877 0.0 0.0
lattice_vector 0.032416424561 4.75870826493 0.0
lattice_vector 0.0137603096593 -1.29525629254 5.26638739235
atom -1.02745 0.82460 3.09027 C
atom -1.42983 0.87616 1.64432 C
atom -1.27731 -0.10077 1.19873 H
atom -2.48096 1.13435 1.59226 H
atom -0.63908 1.88308 0.93534 N
atom -0.87593 2.79999 1.28408 H
atom 0.34759 1.72620 1.07677 H
atom -0.84228 1.85297 -0.05606 H
atom -1.25311 -0.21647 3.74385 O
atom -0.49861 1.83681 3.59449 O
atom 1.49691 -2.82506 5.75363 C
atom 1.88249 -2.79134 4.30269 C
atom 2.93855 -2.55822 4.23441 H
atom 1.70178 -3.76723 3.86609 H
atom 1.10814 -1.76969 3.59731 N
atom 1.24645 -1.85310 2.59773 H
atom 0.12416 -1.85670 3.80485 H
atom 1.42225 -0.85571 3.88930 H
atom 1.70388 -3.86954 6.40786 O
atom 0.99117 -1.80064 6.25770 O
