lattice_vector 7.5222969939 0 0
lattice_vector 0.179809832896 8.26038909869 0
lattice_vector 0.107793266145 0.0487909090748 15.5976501946
atom 5.50886 5.13501 11.99897 S
atom 5.74669 2.35005 12.28684 C
atom 5.95223 3.91385 14.52465 C
atom 6.53070 2.36218 13.87333 S
atom 5.46036 5.00528 13.75567 C
atom 5.30391 3.42566 11.56305 C
atom 4.66109 3.23639 10.31360 C
atom 5.64250 1.05157 11.72428 C
atom 4.12684 3.11246 9.27970 N
atom 5.62016 -0.01307 11.24273 N
atom 5.02621 6.01462 14.60597 C
atom 4.43274 7.24075 14.26082 C
atom 3.92048 8.25800 13.99946 N
atom 5.94203 4.04708 15.83713 N
atom 5.33994 5.54370 16.25987 S
atom 5.95381 -0.94758 4.20633 S
atom 5.74752 1.84008 4.48393 C
atom 5.56998 0.29101 6.73273 C
atom 4.98408 1.83926 6.08071 S
atom 6.03974 -0.80829 5.96104 C
atom 6.17006 0.75754 3.75868 C
atom 6.80213 0.93674 2.50239 C
atom 5.85677 3.13579 3.91662 C
atom 7.33060 1.05737 1.46531 N
atom 5.87964 4.19937 3.43283 N
atom 6.48558 -1.81441 6.80904 C
atom 7.06587 -3.04607 6.46124 C
atom 7.56906 -4.06691 6.19634 N
atom 5.60639 0.16699 8.04579 N
atom 6.20986 -1.33000 8.46590 S
atom 2.29979 3.17323 3.59649 S
atom 2.06264 5.95847 3.31033 C
atom 1.86114 4.39630 1.07085 C
atom 1.28197 5.94781 1.72218 S
atom 2.35135 3.30430 1.84003 C
atom 2.50406 4.88223 4.03410 C
atom 3.14511 5.07055 5.28463 C
atom 2.16566 7.25644 3.87432 C
atom 3.67803 5.19418 6.31928 N
atom 2.18715 8.32057 4.35700 N
atom 2.78635 2.29518 0.98988 C
atom 3.37836 1.06858 1.33612 C
atom 3.88917 0.05109 1.59945 N
atom 1.87341 4.26374 -0.24179 N
atom 2.47494 2.76666 -0.66414 S
atom 1.85070 9.25576 11.39314 S
atom 2.06112 6.46863 11.11311 C
atom 2.24232 8.02070 8.86646 C
atom 2.82621 6.47117 9.51722 S
atom 1.76842 9.11804 9.63825 C
atom 1.63704 7.55003 11.83915 C
atom 1.00745 7.36952 13.09662 C
atom 1.95219 5.17228 11.67898 C
atom 0.48237 7.25194 14.13590 N
atom 1.92944 4.10828 12.16184 N
atom 1.32342 10.12455 8.79027 C
atom 0.74056 11.35521 9.13721 C
atom 0.23480 12.37527 9.40003 N
atom 2.21067 8.14698 7.55370 N
atom 1.60531 9.64333 7.13390 S
