lattice_vector 8.46333073511 0 0
lattice_vector 0.00108318027545 9.622934122 0
lattice_vector 0.000479339262517 0.385668555847 12.5263947658
atom 5.31993 5.57562 6.39966 S
atom 4.90512 4.13045 4.05115 C
atom 4.91375 6.84869 3.91430 C
atom 3.98548 5.45850 3.29558 S
atom 5.48719 6.86711 5.20892 C
atom 5.41772 4.16551 5.32087 C
atom 6.08367 3.05410 5.89275 C
atom 5.11303 3.02209 3.19420 C
atom 6.61819 2.15519 6.41641 N
atom 5.30185 2.16087 2.42492 N
atom 6.18350 8.05673 5.39614 C
atom 6.93780 8.43805 6.51977 C
atom 7.57762 8.72139 7.45535 N
atom 5.11758 7.90029 3.13952 N
atom 6.01251 9.03372 3.96596 S
atom 1.08949 4.43484 6.12489 S
atom 0.67403 5.87925 8.47370 C
atom 0.68162 3.16098 8.60959 C
atom -0.24643 4.55131 9.22840 S
atom 1.25579 3.14294 7.31529 C
atom 1.18704 5.84464 7.20416 C
atom 1.85302 6.95638 6.63295 C
atom 0.88207 6.98725 9.33109 C
atom 2.38665 7.85601 6.10965 N
atom 1.07042 7.84836 10.10057 N
atom 1.95176 1.95310 7.12803 C
atom 2.70646 1.57203 6.00458 C
atom 3.34523 1.28823 5.06844 N
atom 0.88456 2.10903 9.38405 N
atom 1.77958 0.97558 8.55768 S
atom 5.69786 4.52699 12.46843 S
atom 4.72375 5.94898 10.26953 C
atom 4.82389 3.22751 10.12427 C
atom 3.73221 4.57323 9.72246 S
atom 5.62993 3.21748 11.28749 C
atom 5.52302 5.92548 11.38199 C
atom 6.29618 7.04323 11.78085 C
atom 4.60870 7.09155 9.44036 C
atom 6.96007 7.93110 12.15358 N
atom 4.46667 7.99629 8.71144 N
atom 6.37051 2.04091 11.33365 C
atom 7.29731 1.64114 12.31293 C
atom 8.06579 1.31971 13.13116 N
atom 4.90838 2.19111 9.30888 N
atom 5.96993 1.07690 9.94128 S
atom 1.46468 5.48025 0.05657 S
atom 0.49103 4.05835 2.25564 C
atom 0.59181 6.77967 2.40111 C
atom -0.50038 5.43424 2.80253 S
atom 1.39753 6.78973 1.23764 C
atom 1.29024 4.08173 1.14317 C
atom 2.06360 2.96406 0.74449 C
atom 0.37595 2.91596 3.08509 C
atom 2.72823 2.07656 0.37220 N
atom 0.23372 2.01111 3.81384 N
atom 2.13871 7.96594 1.19184 C
atom 3.06532 8.36568 0.21238 C
atom 3.83367 8.68689 -0.60604 N
atom 0.67713 7.81556 3.21703 N
atom 1.73914 8.92949 2.58482 S
