lattice_vector 5.49005851063 0.0 0.0
lattice_vector 0.00217313102257 8.32534930386 0.0
lattice_vector 0.0413154023507 0.0156402508666 10.5717247714
atom 5.59001 9.33224 1.35899 O
atom 4.79669 9.41864 0.22293 C
atom 5.04336 10.23281 -0.44954 H
atom 3.88320 8.41021 0.27359 C
atom 2.72278 7.51643 -0.14857 C
atom 2.88022 6.93122 -1.06423 H
atom 1.74936 8.01825 -0.21122 H
atom 2.96601 6.70778 1.19295 C
atom 3.26573 5.65998 1.06274 H
atom 2.12916 6.74338 1.90154 H
atom 4.10848 7.67692 1.47314 C
atom 5.15616 8.25586 2.12058 C
atom 5.69937 8.10326 3.04443 H
atom -0.06819 5.18117 9.20368 O
atom 0.72518 5.27093 10.33975 C
atom 0.47894 6.08709 11.01222 H
atom 1.63815 4.26235 10.28909 C
atom 2.79810 3.36982 10.71125 C
atom 2.64035 2.78732 11.62691 H
atom 3.77178 3.87183 10.77390 H
atom 2.55445 2.55720 9.36973 C
atom 2.25417 1.50979 9.49994 H
atom 3.39131 2.59070 8.66114 H
atom 1.41248 3.52551 9.08954 C
atom 0.36511 4.10254 8.44209 C
atom -0.17818 3.94721 7.51825 H
atom 5.59893 5.17335 3.91782 O
atom 4.81448 5.26311 5.05389 C
atom 5.06641 6.07927 5.72636 H
atom 3.90060 4.25453 5.00323 C
atom 2.74348 3.36200 5.42538 C
atom 2.90807 2.77950 6.34105 H
atom 1.77055 3.86401 5.48804 H
atom 2.97622 2.54938 4.08386 C
atom 3.27696 1.50197 4.21408 H
atom 2.13383 2.58288 3.37528 H
atom 4.11651 3.51769 3.80368 C
atom 5.15912 4.09472 3.15623 C
atom 5.69511 3.93939 2.23239 H
atom -0.07710 9.34006 6.64486 O
atom 0.70739 9.42646 5.50879 C
atom 0.45589 10.24063 4.83632 H
atom 1.62075 8.41803 5.55945 C
atom 2.77740 7.52425 5.13729 C
atom 2.61250 6.93904 4.22163 H
atom 3.75059 8.02607 5.07464 H
atom 2.54424 6.71560 6.47882 C
atom 2.24294 5.66780 6.34860 H
atom 3.38664 6.75120 7.18740 H
atom 1.40446 7.68474 6.75900 C
atom 0.36214 8.26368 7.40645 C
atom -0.17392 8.11108 8.33029 H
