lattice_vector 4.5751668443 0.0 0.0
lattice_vector -0.0172627750636 7.9318659539 0.0
lattice_vector -0.092039775447 -0.0668501015181 9.89240164148
atom -0.43237 3.59737 1.44242 O
atom -0.00877 2.77155 0.41094 C
atom -0.51075 2.92385 -0.53670 H
atom 0.99210 1.98472 0.89010 C
atom 2.10794 0.95020 0.89124 C
atom 2.95347 1.18181 0.23110 H
atom 1.79946 -0.08999 0.73236 H
atom 2.34535 1.32405 2.41072 C
atom 3.32898 1.76777 2.61090 H
atom 2.15677 0.50186 3.11312 H
atom 1.20363 2.32490 2.25599 C
atom 0.32283 3.31248 2.57233 C
atom 0.09286 3.92852 3.43296 H
atom 4.81195 4.21148 7.66156 O
atom 4.06584 4.50529 6.52809 C
atom 4.30406 3.89778 5.66353 H
atom 3.18216 5.49010 6.84523 C
atom 2.04056 6.49095 6.68972 C
atom 1.05894 6.04812 6.47737 H
atom 2.23424 7.31955 5.99614 H
atom 2.26463 6.85177 8.21434 C
atom 1.41351 6.61250 8.86472 H
atom 2.57004 7.89103 8.38583 H
atom 3.38193 5.81860 8.21586 C
atom 4.37920 5.02800 8.69669 C
atom 4.87497 4.86972 9.64662 H
atom 4.89305 7.55807 2.72069 O
atom 4.12955 7.28282 1.59424 C
atom 4.35392 7.90577 0.73691 H
atom 3.25385 6.28959 1.90761 C
atom 2.11436 5.28634 1.75165 C
atom 1.12813 5.72858 1.56175 H
atom 2.30068 4.47111 1.04038 H
atom 2.36374 4.89956 3.26613 C
atom 1.52222 5.12338 3.93388 H
atom 2.67544 3.85889 3.41465 H
atom 3.47673 5.93692 3.26867 C
atom 4.47983 6.72119 3.74740 C
atom 4.98778 6.86680 4.69292 H
atom -0.51397 0.25546 6.37625 O
atom -0.09785 1.09466 5.35244 C
atom -0.60560 0.95307 4.40600 H
atom 0.90512 1.87656 5.83505 C
atom 2.02021 2.91165 5.84140 C
atom 2.86280 2.68659 5.17538 H
atom 1.71152 3.95329 5.69354 H
atom 2.26541 2.52204 7.35576 C
atom 3.25102 2.07925 7.54790 H
atom 2.07724 3.33641 8.06764 H
atom 1.12532 1.52001 7.19553 C
atom 0.24817 0.52671 7.50475 C
atom 0.02230 -0.09912 8.35963 H
