lattice_vector 4.79890288586 0.0 0.0
lattice_vector -0.0200407843283 9.20830019032 0.0
lattice_vector -0.104267229359 -0.075731115529 11.2066039476
atom -0.37259 3.92545 1.65148 O
atom 0.05101 3.09963 0.62000 C
atom -0.45097 3.25193 -0.32764 H
atom 1.05188 2.31280 1.09916 C
atom 2.16772 1.27828 1.10030 C
atom 3.01325 1.50989 0.44016 H
atom 1.85924 0.23809 0.94142 H
atom 2.40513 1.65213 2.61978 C
atom 3.38876 2.09584 2.81996 H
atom 2.21655 0.82994 3.32218 H
atom 1.26341 2.65298 2.46505 C
atom 0.38261 3.64056 2.78139 C
atom 0.15264 4.25660 3.64202 H
atom 4.95731 5.14175 8.66188 O
atom 4.21120 5.43556 7.52840 C
atom 4.44942 4.82805 6.66385 H
atom 3.32752 6.42037 7.84555 C
atom 2.18592 7.42123 7.69003 C
atom 1.20429 6.97839 7.47769 H
atom 2.37960 8.24982 6.99645 H
atom 2.40999 7.78205 9.21466 C
atom 1.55887 7.54277 9.86504 H
atom 2.71540 8.82130 9.38614 H
atom 3.52729 6.74887 9.21617 C
atom 4.52456 5.95827 9.69700 C
atom 5.02033 5.79999 10.64693 H
atom 5.04635 8.52323 3.06444 O
atom 4.28285 8.24798 1.93798 C
atom 4.50722 8.87093 1.08066 H
atom 3.40715 7.25475 2.25136 C
atom 2.26766 6.25150 2.09539 C
atom 1.28143 6.69374 1.90549 H
atom 2.45398 5.43627 1.38413 H
atom 2.51704 5.86472 3.60987 C
atom 1.67552 6.08854 4.27762 H
atom 2.82873 4.82405 3.75839 H
atom 3.63003 6.90208 3.61241 C
atom 4.63313 7.68635 4.09114 C
atom 5.14107 7.83196 5.03666 H
atom -0.46207 0.54904 7.24193 O
atom -0.04594 1.38824 6.21812 C
atom -0.55369 1.24665 5.27168 H
atom 0.95702 2.17014 6.70073 C
atom 2.07211 3.20524 6.70708 C
atom 2.91470 2.98017 6.04107 H
atom 1.76343 4.24688 6.55922 H
atom 2.31732 2.81563 8.22144 C
atom 3.30292 2.37284 8.41358 H
atom 2.12915 3.62999 8.93332 H
atom 1.17722 1.81360 8.06121 C
atom 0.30007 0.82029 8.37043 C
atom 0.07420 0.19446 9.22531 H
