lattice_vector 6.463902 0.0 0.0
lattice_vector 3.30439220398e-16 6.463902 0.0
lattice_vector -0.495178511818 2.65849157315e-16 4.6791132194
atom -0.28161 1.53963 2.45692 C
atom -0.62209 0.09536 2.67476 C
atom -0.56218 -0.11556 3.73414 H
atom -1.63285 -0.10119 2.32911 H
atom 0.32257 -0.74686 1.95829 N
atom 0.33610 -0.51369 0.97661 H
atom 1.24288 -0.59525 2.34551 H
atom 0.06306 -1.72015 2.07125 H
atom -1.24127 2.31628 2.29894 O
atom 0.91445 1.90411 2.43328 O
atom 3.14818 4.18532 0.07266 C
atom 2.86656 2.74286 0.36677 C
atom 3.09423 2.54886 1.40426 H
atom 1.81614 2.53011 0.18382 H
atom 3.67856 1.90465 -0.49947 N
atom 3.29566 1.93607 -1.43346 H
atom 4.63177 2.24226 -0.51427 H
atom 3.64280 0.94297 -0.18257 H
atom 2.16294 4.91295 -0.15524 O
atom 4.32777 4.59471 0.05378 O
