lattice_vector 6.14883756651 0 0
lattice_vector -1.43363667704 6.99176122875 0
lattice_vector -0.00737859780845 -1.6162333539 11.8658893167
atom 4.98029 0.92888 8.21002 O
atom 5.59315 1.01569 6.97055 C
atom 6.67537 1.00135 6.99835 H
atom 4.61942 1.08885 6.02247 C
atom 3.97623 1.24188 4.65026 C
atom 4.14049 0.41325 3.94892 H
atom 4.18426 2.19569 4.14654 H
atom 2.57870 1.19806 5.38596 C
atom 1.95080 0.34189 5.11011 H
atom 1.99510 2.12338 5.29256 H
atom 3.36106 1.05073 6.69026 C
atom 3.60693 0.95648 8.02700 C
atom 3.03324 0.92007 8.94497 H
atom 1.00556 4.85061 3.70100 O
atom 1.63058 4.72584 4.92940 C
atom 2.71225 4.74993 4.89153 H
atom 0.66644 4.62809 5.88554 C
atom 0.03853 4.54114 7.26980 C
atom 0.21916 3.61042 7.82297 H
atom 0.24483 5.40386 7.91881 H
atom -1.36711 4.59037 6.55077 C
atom -1.95726 3.67523 6.67971 H
atom -1.98006 5.46299 6.80722 H
atom -0.59856 4.69364 5.23429 C
atom -0.36613 4.83595 3.89881 C
atom -0.94968 4.94087 2.99261 H
atom 1.90557 1.70492 2.27378 O
atom 2.52005 1.80046 1.03570 C
atom 3.60219 1.77937 1.06422 H
atom 1.54766 1.88816 0.08744 C
atom 0.90660 2.05927 -1.28374 C
atom 1.06720 1.23775 -1.99413 H
atom 1.12032 3.01743 -1.77660 H
atom -0.49198 2.01470 -0.54982 C
atom -1.12316 1.16401 -0.83494 H
atom -1.07196 2.94311 -0.63477 H
atom 0.28834 1.85054 0.75378 C
atom 0.53234 1.74211 2.08971 C
atom -0.04267 1.70021 3.00662 H
atom 4.07236 4.07480 9.63699 O
atom 4.69897 3.93206 10.86275 C
atom 5.78062 3.95826 10.82399 H
atom 3.73605 3.81922 11.81844 C
atom 3.10971 3.71261 13.20219 C
atom 3.29149 2.77455 13.74251 H
atom 3.31624 4.56649 13.86256 H
atom 1.70322 3.77008 12.48564 C
atom 1.11563 2.85177 12.60261 H
atom 1.08841 4.63723 12.75541 H
atom 2.47005 3.89353 11.16973 C
atom 2.70092 4.05642 9.83626 C
atom 2.11600 4.17485 8.93260 H
