lattice_vector 7.4934127812 0 0
lattice_vector -0.0229173552083 9.76295833217 0
lattice_vector -0.0302674667659 -0.0104714495489 14.0306393649
atom 1.77122 5.48034 9.28930 S
atom 2.24882 6.80725 6.83541 C
atom 2.16689 4.07349 6.83350 C
atom 2.83493 5.42639 5.89637 S
atom 1.67608 4.11902 8.17021 C
atom 1.82388 6.83187 8.14336 C
atom 1.33041 8.04327 8.69238 C
atom 2.19480 8.01895 6.09530 C
atom 0.90922 9.04189 9.13355 N
atom 2.14257 9.02826 5.50595 N
atom 1.17444 2.87219 8.52135 C
atom 0.47621 2.50808 9.68429 C
atom -0.17559 2.21678 10.60854 N
atom 2.10844 2.91296 6.20577 N
atom 1.45620 1.75254 7.21193 S
atom 5.91730 9.50847 4.79300 S
atom 5.19316 10.84319 7.19184 C
atom 5.51431 8.12059 7.27259 C
atom 4.83331 9.45419 8.22824 S
atom 5.98970 8.16647 5.93105 C
atom 5.61303 10.86347 5.88318 C
atom 5.86885 12.11123 5.25574 C
atom 5.04324 12.09179 7.85182 C
atom 6.10123 13.13196 4.73311 N
atom 4.94395 13.13517 8.37125 N
atom 6.47126 6.91418 5.56572 C
atom 7.10688 6.55869 4.36373 C
atom 7.69732 6.28805 3.39196 N
atom 5.58128 6.95491 7.89470 N
atom 6.21491 5.79612 6.87719 S
atom 5.25955 4.61474 11.80583 S
atom 5.95926 5.95344 14.20895 C
atom 5.65725 3.22907 14.28704 C
atom 6.33317 4.56564 15.24208 S
atom 5.18527 3.27320 12.94420 C
atom 5.54185 5.97197 12.89934 C
atom 5.27404 7.21791 12.27347 C
atom 6.09560 7.20247 14.87103 C
atom 5.03474 8.23770 11.75205 N
atom 6.18634 8.24733 15.38904 N
atom 4.70667 2.02019 12.57825 C
atom 4.07400 1.66425 11.37485 C
atom 3.49106 1.39188 10.39913 N
atom 5.59040 2.06369 14.90967 N
atom 4.96155 0.90329 13.89109 S
atom 1.93964 0.61148 2.27489 S
atom 1.46534 1.93420 -0.18169 C
atom 1.55262 -0.79906 -0.17976 C
atom 0.88239 0.55127 -1.11925 S
atom 2.04074 -0.75101 1.15781 C
atom 1.88817 1.96124 1.12686 C
atom 2.37827 3.17439 1.67512 C
atom 1.51880 3.14477 -0.92381 C
atom 2.79542 4.17477 2.11624 N
atom 1.56843 4.15411 -1.51329 N
atom 2.54588 -1.99596 1.51060 C
atom 3.24187 -2.35832 2.67533 C
atom 3.88701 -2.65090 3.60378 N
atom 1.61656 -1.95958 -0.80688 N
atom 2.27183 -3.11679 0.20065 S
