lattice_vector 8.37310233938 0 0
lattice_vector 0.0140897403973 9.62960369829 0
lattice_vector 0.00610851275979 0.00716052574034 12.9351081708
atom 9.29741 9.27095 10.99567 S
atom 6.61771 9.96523 10.63214 C
atom 8.36895 10.56258 8.66252 C
atom 7.02251 11.31470 9.54285 S
atom 9.30696 9.69694 9.28620 C
atom 7.53907 9.15292 11.23257 C
atom 7.13439 8.13547 12.13115 C
atom 5.22982 9.80250 10.85180 C
atom 6.80496 7.30865 12.88874 N
atom 4.07528 9.70012 11.00550 N
atom 10.21813 9.23901 8.34378 C
atom 11.20012 8.24609 8.50096 C
atom 11.98854 7.39024 8.60622 N
atom 8.51947 10.80435 7.37217 N
atom 9.86271 9.98907 6.80565 S
atom 5.09135 0.35930 1.94026 S
atom 2.41226 -0.33635 2.30547 C
atom 4.16432 -0.92872 4.27562 C
atom 2.81830 -1.68337 3.39694 S
atom 5.10183 -0.06363 3.65037 C
atom 3.33273 0.47594 1.70358 C
atom 2.92743 1.49169 0.80338 C
atom 1.02402 -0.17554 2.08558 C
atom 2.59913 2.31719 0.04384 N
atom -0.13072 -0.07452 1.93233 N
atom 6.01339 0.39561 4.59178 C
atom 6.99444 1.38934 4.43380 C
atom 7.78237 2.24573 4.32918 N
atom 4.31538 -1.16860 5.56615 N
atom 5.65872 -0.35244 6.13109 S
atom 9.28408 4.45083 1.94480 S
atom 6.60554 5.14640 2.31147 C
atom 8.35865 5.73972 4.27977 C
atom 7.01429 6.49534 3.39994 S
atom 9.29398 4.87193 3.65521 C
atom 7.52547 4.33439 1.70835 C
atom 7.11943 3.31957 0.80754 C
atom 5.21704 4.98310 2.09609 C
atom 6.79045 2.49417 0.04819 N
atom 4.06210 4.87985 1.94596 N
atom 10.20338 4.40958 4.59710 C
atom 11.18077 3.41225 4.43963 C
atom 11.96611 2.55353 4.33501 N
atom 8.50994 5.97952 5.57038 N
atom 9.85075 5.15973 6.13599 S
atom 5.10856 5.17858 10.98823 S
atom 2.42970 4.48370 10.62131 C
atom 4.18132 3.89804 8.64920 C
atom 2.83755 3.13874 9.52741 S
atom 5.11850 4.76172 9.27649 C
atom 3.35006 5.29438 11.22537 C
atom 2.94466 6.30727 12.12881 C
atom 1.04136 4.64365 10.84023 C
atom 2.61616 7.13050 12.89072 N
atom -0.11397 4.74416 10.98936 N
atom 6.02878 5.22519 8.33601 C
atom 7.00945 6.21882 8.49718 C
atom 7.79743 7.07473 8.60501 N
atom 4.33125 3.66311 7.35757 N
atom 5.67328 4.48233 6.79444 S
