lattice_vector 7.48579887228 0 0
lattice_vector -0.00806886156523 10.3308929623 0
lattice_vector -0.0109496070755 -0.00305571636031 12.3405449196
atom 6.05449 6.80746 3.06460 S
atom 6.95928 8.93990 1.41991 C
atom 7.16985 6.37794 0.44993 C
atom 7.52415 8.05712 -0.00169 S
atom 6.64857 5.88749 1.68332 C
atom 6.43015 8.46847 2.59392 C
atom 6.11071 9.37290 3.63801 C
atom 7.11865 10.34253 1.27289 C
atom 5.83793 10.07912 4.52917 N
atom 7.23894 11.49751 1.14806 N
atom 6.61336 4.49616 1.65477 C
atom 6.11912 3.64686 2.66068 C
atom 5.66905 2.96288 3.49598 N
atom 7.48283 5.47262 -0.45909 N
atom 7.19977 3.93102 0.10724 S
atom 1.36799 3.52342 9.23518 S
atom 0.45870 1.39254 7.59096 C
atom 0.25316 3.95445 6.62048 C
atom -0.10387 2.27586 6.16887 S
atom 0.77450 4.44418 7.85412 C
atom 0.98871 1.86306 8.76498 C
atom 1.30410 0.95825 9.80980 C
atom 0.29829 -0.00998 7.44391 C
atom 1.57378 0.25100 10.70105 N
atom 0.17764 -1.16497 7.31940 N
atom 0.81080 5.83549 7.82622 C
atom 1.30389 6.68445 8.83285 C
atom 1.75302 7.36908 9.66812 N
atom -0.05864 4.86039 5.71163 N
atom 0.22509 6.40152 6.27857 S
atom 2.31424 3.52484 3.06298 S
atom 3.22309 1.39434 1.41803 C
atom 3.43042 3.95709 0.44907 C
atom 3.79072 2.27904 -0.00149 S
atom 2.90719 4.44640 1.68208 C
atom 2.69201 1.86453 2.59161 C
atom 2.37251 0.95929 3.63500 C
atom 3.38405 -0.00794 1.26967 C
atom 2.10091 0.25330 4.52666 N
atom 3.50575 -1.16274 1.14395 N
atom 2.86892 5.83766 1.65365 C
atom 2.37325 6.68618 2.65948 C
atom 1.92217 7.36953 3.49475 N
atom 3.74177 4.86316 -0.45979 N
atom 3.45547 6.40412 0.10647 S
atom 5.10696 6.81150 9.23400 S
atom 4.19568 8.94181 7.59004 C
atom 3.99238 6.37955 6.61947 C
atom 3.62931 8.05759 6.16985 S
atom 4.51533 5.89037 7.85262 C
atom 4.72728 8.47163 8.76347 C
atom 5.04429 9.37692 9.80747 C
atom 4.03325 10.34406 7.44315 C
atom 5.31464 10.08419 10.69851 N
atom 3.91081 11.49885 7.31844 N
atom 4.55463 4.49913 7.82402 C
atom 5.04956 3.65054 8.83008 C
atom 5.50030 2.96721 9.66555 N
atom 3.68265 5.47342 5.71017 N
atom 3.96958 3.93257 6.27636 S
