lattice_vector 5.37812703695 0.0 0.0
lattice_vector 0.188440451157 6.90174624186 0.0
lattice_vector 0.810730735424 0.10744888846 13.4620199187
atom 3.59848 8.47416 10.95533 O
atom 2.87081 7.29326 10.85517 C
atom 1.92112 7.37523 10.34179 H
atom 3.57657 6.31573 11.48356 C
atom 3.93781 4.92663 11.98731 C
atom 4.10697 4.18886 11.19320 H
atom 3.26087 4.50248 12.74012 H
atom 5.26191 5.57456 12.57169 C
atom 6.19456 5.18971 12.14040 H
atom 5.32596 5.56069 13.66681 H
atom 4.77555 6.89327 11.98746 C
atom 4.77299 8.21010 11.65102 C
atom 5.44075 9.05724 11.75338 H
atom 2.73312 -1.46497 2.50551 O
atom 3.46079 -0.28407 2.60567 C
atom 4.41047 -0.36604 3.11905 H
atom 2.75502 0.69345 1.97728 C
atom 2.39379 2.08255 1.47354 C
atom 2.22462 2.82032 2.26764 H
atom 3.07073 2.50670 0.72072 H
atom 1.06969 1.43463 0.88915 C
atom 0.13704 1.81947 1.32044 H
atom 1.00564 1.44850 -0.20597 H
atom 1.55605 0.11591 1.47338 C
atom 1.55860 -1.20091 1.80983 C
atom 0.89084 -2.04806 1.70747 H
atom 6.00286 5.00957 9.23652 O
atom 6.66609 3.83027 9.33668 C
atom 7.62047 3.92043 9.85006 H
atom 5.90667 2.84271 8.70829 C
atom 5.46936 1.44557 8.20455 C
atom 5.26025 0.72047 8.99865 H
atom 6.12281 1.00940 7.45173 H
atom 4.18038 2.08416 7.62016 C
atom 3.22691 1.70620 8.05145 H
atom 4.11510 2.05281 6.52504 H
atom 4.73901 3.41220 8.20439 C
atom 4.81362 4.73440 8.54084 C
atom 4.19207 5.57991 8.43848 H
atom 0.32874 1.99962 4.22432 O
atom -0.33449 3.17892 4.12416 C
atom -1.28888 3.08876 3.61078 H
atom 0.42493 4.16648 4.75255 C
atom 0.86224 5.56362 5.25630 C
atom 1.07135 6.28871 4.46219 H
atom 0.20879 5.99979 6.00911 H
atom 2.15121 4.92502 5.84068 C
atom 3.10469 5.30298 5.40939 H
atom 2.21650 4.95637 6.93580 H
atom 1.59259 3.59698 5.25645 C
atom 1.51798 2.27479 4.92001 C
atom 2.13952 1.42927 5.02237 H
