lattice_vector 5.49005851063 0.0 0.0
lattice_vector 0.00217313102257 8.32534930386 0.0
lattice_vector 0.0413154023507 0.0156402508666 10.5717247714
atom 5.39421 1.15039 1.84468 O
atom 4.60553 1.27316 0.70873 C
atom 4.87363 2.09078 0.04877 H
atom 3.66724 0.28706 0.74300 C
atom 2.48588 -0.57135 0.30580 C
atom 2.63060 -1.14674 -0.61815 H
atom 1.52532 -0.04468 0.24899 H
atom 2.70634 -1.40546 1.63562 C
atom 2.98028 -2.45834 1.49042 H
atom 1.86922 -1.35957 2.34330 H
atom 3.87191 -0.46918 1.93195 C
atom 4.93231 0.07400 2.58958 C
atom 5.46974 -0.10562 3.51195 H
atom 0.12552 5.32323 8.71800 O
atom 0.91426 5.44936 9.85395 C
atom 0.64659 6.26894 10.51391 H
atom 1.85203 4.46316 9.81968 C
atom 3.03295 3.60604 10.25688 C
atom 2.88793 3.03340 11.18083 H
atom 3.99378 4.13288 10.31369 H
atom 2.81205 2.76800 8.92706 C
atom 2.53757 1.71555 9.07226 H
atom 3.64919 2.81180 8.21938 H
atom 1.64697 3.70340 8.63073 C
atom 0.58685 4.24463 7.97310 C
atom 0.04933 4.06229 7.05073 H
atom 5.40150 5.31541 3.43214 O
atom 4.62170 5.44154 4.56808 C
atom 4.89496 6.26112 5.22805 H
atom 3.68314 4.45534 4.53381 C
atom 2.50520 3.59822 4.97101 C
atom 2.65714 3.02557 5.89497 H
atom 1.54508 4.12506 5.02783 H
atom 2.71526 2.76018 3.64119 C
atom 2.99034 1.70773 3.78639 H
atom 1.87262 2.80398 2.93352 H
atom 3.87852 3.69558 3.34487 C
atom 4.93378 4.23681 2.68724 C
atom 5.46400 4.05447 1.76487 H
atom 0.11822 1.15821 7.13054 O
atom 0.89809 1.28098 5.99459 C
atom 0.62526 2.09860 5.33463 H
atom 1.83613 0.29488 6.02886 C
atom 3.01363 -0.56353 5.59167 C
atom 2.86139 -1.13892 4.66771 H
atom 3.97402 -0.03686 5.53485 H
atom 2.80313 -1.39764 6.92148 C
atom 2.52751 -2.45052 6.77628 H
atom 3.64580 -1.35175 7.62916 H
atom 1.64036 -0.46136 7.21781 C
atom 0.58538 0.08182 7.87544 C
atom 0.05507 -0.09780 8.79781 H
