lattice_vector 5.860393 0.0 0.0
lattice_vector -1.73286606175e-05 5.86039299997 0.0
lattice_vector -2.54892382546e-05 -2.14792592769 4.94246948995
atom -1.47464 0.05382 2.66663 C
atom -1.83539 0.57784 1.30237 C
atom -1.56243 -0.16134 0.55811 H
atom -2.89782 0.75801 1.27781 H
atom -1.13772 1.83479 1.03203 N
atom -1.39202 2.52285 1.72877 H
atom -0.13734 1.68816 1.06541 H
atom -1.38311 2.18314 0.11306 H
atom -1.69111 -1.14581 2.94404 O
atom -0.97921 0.85160 3.48595 O
atom 1.41535 -3.71494 5.05432 C
atom 1.77612 -3.19091 3.69007 C
atom 2.83854 -3.01071 3.66556 H
atom 1.50321 -3.93010 2.94579 H
atom 1.07842 -1.93398 3.41971 N
atom 1.32383 -1.58562 2.50075 H
atom 0.07804 -2.08064 3.45305 H
atom 1.33268 -1.24592 4.11647 H
atom 1.63184 -4.91457 5.33174 O
atom 0.91988 -2.91717 5.87362 O
