lattice_vector 7.45106343197 0 0
lattice_vector -0.0287462410081 9.67156925739 0
lattice_vector -0.0527855585797 -0.653667094485 13.5989524869
atom 5.06807 0.39754 11.20389 S
atom 5.17133 1.73136 8.70983 C
atom 4.69138 -0.94210 8.71024 C
atom 5.44791 0.30573 7.70204 S
atom 4.54945 -0.90449 10.12723 C
atom 5.04903 1.77016 10.07814 C
atom 4.95238 3.02776 10.72447 C
atom 5.11751 2.94360 7.97250 C
atom 4.91846 4.07789 11.23952 N
atom 5.08400 3.93378 7.35122 N
atom 3.99871 -2.10181 10.57246 C
atom 3.72139 -2.52313 11.88505 C
atom 3.48626 -2.92049 12.95906 N
atom 4.28833 -2.03539 8.08990 N
atom 3.75268 -3.15095 9.19703 S
atom 1.34118 3.46676 9.19624 S
atom 1.42887 2.13147 11.69049 C
atom 0.92898 4.80147 11.68728 C
atom 1.68222 3.55794 12.70292 S
atom 0.80406 4.76486 10.26859 C
atom 1.32400 2.09327 10.32073 C
atom 1.25127 0.83514 9.67213 C
atom 1.37587 0.91826 12.42630 C
atom 1.23853 -0.21481 9.15582 N
atom 1.34201 -0.07234 13.04689 N
atom 0.25259 5.96020 9.81841 C
atom -0.01018 6.38359 8.50352 C
atom -0.23768 6.78206 7.42828 N
atom 0.51232 5.89161 12.30418 N
atom -0.01582 7.00589 11.19233 S
atom 2.30147 8.62045 2.39520 S
atom 2.19825 7.28659 4.88924 C
atom 2.67812 9.96007 4.88887 C
atom 1.92159 8.71221 5.89702 S
atom 2.82005 9.92247 3.47187 C
atom 2.32055 7.24781 3.52093 C
atom 2.41725 5.99022 2.87457 C
atom 2.25213 6.07435 5.62656 C
atom 2.45120 4.94011 2.35948 N
atom 2.28567 5.08417 6.24783 N
atom 3.37077 11.11981 3.02666 C
atom 3.64808 11.54112 1.71406 C
atom 3.88309 11.93849 0.64003 N
atom 3.08116 11.05336 5.50922 N
atom 3.61680 12.16894 4.40209 S
atom 6.02846 5.55104 4.40259 S
atom 5.94071 6.88639 1.90837 C
atom 6.44059 4.21638 1.91150 C
atom 5.68741 5.45995 0.89588 S
atom 6.56550 4.25296 3.33019 C
atom 6.04557 6.92455 3.27813 C
atom 6.11821 8.18266 3.92677 C
atom 5.99368 8.09962 1.17260 C
atom 6.13086 9.23260 4.44312 N
atom 6.02749 9.09024 0.55202 N
atom 7.11691 3.05758 3.78034 C
atom 7.37964 2.63419 5.09525 C
atom 7.60709 2.23575 6.17051 N
atom 6.85721 3.12623 1.29457 N
atom 7.38530 2.01191 2.40641 S
