lattice_vector 4.27292987587 0 0
lattice_vector 0.0319492762441 9.83783823554 0
lattice_vector 0.269066015915 0.0237379845285 11.9159661484
atom 1.13009 10.37752 5.98130 O
atom 1.13160 9.03584 5.63039 C
atom 0.51570 8.39688 6.25140 H
atom 1.90778 8.89220 4.52172 C
atom 2.60468 8.20890 3.35486 C
atom 1.94105 7.70742 2.63752 H
atom 3.40231 7.51032 3.64151 H
atom 3.11845 9.64985 2.92658 C
atom 2.72557 10.01864 1.97064 H
atom 4.20799 9.77163 2.93485 H
atom 2.39236 10.18031 4.15903 C
atom 1.90244 11.07303 5.06153 C
atom 1.97937 12.13737 5.25149 H
atom 3.46630 5.44413 5.93985 O
atom 3.45029 4.10459 6.29874 C
atom 4.06093 3.45574 5.68277 H
atom 2.67191 3.97625 7.40754 C
atom 1.96795 3.30772 8.57863 C
atom 2.62780 2.80731 9.30035 H
atom 1.16586 2.61236 8.29709 H
atom 1.46575 4.75589 8.99554 C
atom 1.85897 5.12760 9.95022 H
atom 0.37729 4.88697 8.98318 H
atom 2.19948 5.27134 7.76128 C
atom 2.70018 6.15339 6.85418 C
atom 2.63419 7.21715 6.65666 H
atom 1.47549 10.30290 12.01401 O
atom 1.45599 8.97230 11.62614 C
atom 2.06807 8.30967 12.22554 H
atom 0.66863 8.86792 10.52074 C
atom -0.04582 8.22707 9.33994 C
atom 0.60547 7.74075 8.60184 H
atom -0.84906 7.52868 9.61106 H
atom -0.54474 9.68584 8.95791 C
atom -0.14900 10.07747 8.01231 H
atom -1.63293 9.82062 8.97359 H
atom 0.19457 10.17078 10.20020 C
atom 0.70284 11.03204 11.12219 C
atom 0.63805 12.09143 11.34040 H
atom 3.10769 5.37067 -0.09361 O
atom 3.12194 4.03972 0.29297 C
atom 2.50527 3.38069 -0.30568 H
atom 3.91025 3.93084 1.39723 C
atom 4.62369 3.28583 2.57629 C
atom 3.97192 2.79999 3.31437 H
atom 5.42408 2.58518 2.30302 H
atom 5.12776 4.74238 2.96031 C
atom 4.73278 5.13360 3.90641 H
atom 6.21632 4.87387 2.94484 H
atom 4.38991 5.23141 1.71876 C
atom 3.88440 6.09556 0.79807 C
atom 3.95479 7.15446 0.57977 H
