lattice_vector 4.759429 0.0 0.0
lattice_vector -4.86516013858e-05 4.75942899986 0.0
lattice_vector 3.59574725672e-06 -1.28626311931 5.26681795174
atom -0.96202 1.08376 3.32296 C
atom -1.34661 1.12178 1.87178 C
atom -1.17785 0.14331 1.43589 H
atom -2.39962 1.36774 1.80301 H
atom -0.55849 2.13256 1.16548 N
atom -0.84925 3.05095 1.46721 H
atom 0.42522 2.02161 1.36178 H
atom -0.70914 2.05878 0.16685 H
atom -1.18125 0.04212 3.97793 O
atom -0.44279 2.10162 3.82617 O
atom 1.58413 -2.57932 5.99075 C
atom 1.96872 -2.54129 4.53956 C
atom 3.02173 -2.29531 4.47080 H
atom 1.79998 -3.51977 4.10367 H
atom 1.18057 -1.53053 3.83327 N
atom 1.33124 -1.60428 2.83464 H
atom 0.19687 -1.64153 4.02955 H
atom 1.47128 -0.61213 4.13503 H
atom 1.80339 -3.62095 6.64572 O
atom 1.06488 -1.56147 6.49396 O
