lattice_vector 7.20690477125 0 0
lattice_vector 0.0524594867109 10.7441643155 0
lattice_vector 0.0255549749736 0.0418939877173 13.0484876407
atom 7.45082 7.82938 7.08676 S
atom 6.34507 5.91732 8.86389 C
atom 6.18542 8.57089 9.54883 C
atom 6.03503 6.95300 10.25867 S
atom 6.70974 8.90449 8.26904 C
atom 6.90010 6.24890 7.65270 C
atom 7.09853 5.22843 6.68929 C
atom 5.96470 4.56818 9.08016 C
atom 7.27511 4.38223 5.90054 N
atom 5.65246 3.45182 9.23168 N
atom 6.65079 10.28165 8.09057 C
atom 6.97213 11.01895 6.93646 C
atom 7.19751 11.62634 5.96130 N
atom 5.78809 9.56883 10.31376 N
atom 6.02098 11.02368 9.53878 S
atom 3.82672 2.93941 5.95675 S
atom 2.72798 4.85906 4.18390 C
atom 2.53614 2.20670 3.50509 C
atom 2.40154 3.82447 2.79224 S
atom 3.06471 1.87006 4.78238 C
atom 3.28699 4.52426 5.39246 C
atom 3.49886 5.54419 6.35353 C
atom 2.35631 6.21067 3.96813 C
atom 3.68563 6.38940 7.14096 N
atom 2.05141 7.32899 3.81609 N
atom 2.99214 0.49394 4.96391 C
atom 3.31559 -0.24499 6.11649 C
atom 3.54252 -0.85268 7.09115 N
atom 2.12295 1.21166 2.74472 N
atom 2.34513 -0.24393 3.52110 S
atom 7.44132 8.30203 0.56059 S
atom 6.35700 10.22965 2.33442 C
atom 6.16285 7.57936 3.02131 C
atom 6.03610 9.19955 3.73061 S
atom 6.68432 7.23743 1.74244 C
atom 6.90811 9.88966 1.12367 C
atom 7.11366 10.90579 0.15732 C
atom 5.98910 11.58269 2.54800 C
atom 7.29465 11.74827 -0.63442 N
atom 5.68586 12.70169 2.69832 N
atom 6.60952 5.86067 1.56644 C
atom 6.92908 5.11564 0.41674 C
atom 7.15127 4.50280 -0.55578 N
atom 5.75206 6.58763 3.78711 N
atom 5.96903 5.12889 3.01504 S
atom 3.82140 2.46836 12.48867 S
atom 2.72009 0.54878 10.71622 C
atom 2.55325 3.20047 10.02517 C
atom 2.40148 1.58043 9.32051 S
atom 3.07963 3.53892 11.30287 C
atom 3.27695 0.88487 11.92536 C
atom 3.48111 -0.13235 12.89106 C
atom 2.34210 -0.80179 10.50367 C
atom 3.66290 -0.97470 13.68277 N
atom 2.02971 -1.91838 10.35394 N
atom 3.02275 4.91692 11.47557 C
atom 3.35042 5.65923 12.62471 C
atom 3.57806 6.26859 13.59813 N
atom 2.15559 4.19567 9.25694 N
atom 2.39130 5.65354 10.02532 S
