lattice_vector 7.0161732559 0 0
lattice_vector -0.0375085789563 9.91928892162 0
lattice_vector -0.206018873015 -0.0142668604811 14.8293670054
atom 5.34613 4.01984 6.80056 S
atom 4.16786 5.34659 4.59204 C
atom 3.99028 2.60860 4.69697 C
atom 3.73886 3.96749 3.58056 S
atom 4.62319 2.64992 5.97107 C
atom 4.77047 5.36988 5.82351 C
atom 5.00130 6.62442 6.44443 C
atom 3.82296 6.58042 3.98490 C
atom 5.17284 7.66290 6.95630 N
atom 3.55526 7.60428 3.48742 N
atom 4.66880 1.36998 6.50833 C
atom 5.18587 1.02276 7.76836 C
atom 5.59499 0.78796 8.83915 N
atom 3.57621 1.43301 4.27150 N
atom 3.95505 0.24490 5.37626 S
atom 1.40328 8.98973 8.03344 S
atom 2.57414 10.32871 10.23799 C
atom 2.77491 7.59227 10.13619 C
atom 3.01332 8.95435 11.25173 S
atom 2.14144 7.62753 8.86213 C
atom 1.97090 10.34565 9.00674 C
atom 1.73288 11.59748 8.38298 C
atom 2.91125 11.56645 10.84126 C
atom 1.55607 12.63416 7.86927 N
atom 3.17268 12.59447 11.33338 N
atom 2.10768 6.34722 8.32510 C
atom 1.59284 5.99523 7.06544 C
atom 1.18480 5.75601 5.99522 N
atom 3.19947 6.42058 10.56209 N
atom 2.83163 5.22890 9.45711 S
atom 4.80502 3.72797 14.06586 S
atom 6.03171 5.04941 11.87639 C
atom 6.36906 2.33338 12.10368 C
atom 6.57538 3.65788 10.93958 S
atom 5.65740 2.37257 13.33678 C
atom 5.36403 5.07815 13.07378 C
atom 5.06798 6.33486 13.66249 C
atom 6.37636 6.27394 11.24725 C
atom 4.85180 7.36993 14.16416 N
atom 6.65882 7.27468 10.71149 N
atom 5.66700 1.10937 13.91792 C
atom 5.10942 0.74066 15.15479 C
atom 4.67489 0.45888 16.20432 N
atom 6.89973 1.17866 11.75531 N
atom 6.53596 0.00486 12.87588 S
atom 1.94502 8.69081 0.75861 S
atom 0.71295 10.00175 2.95175 C
atom 0.39934 7.28264 2.72562 C
atom 0.18250 8.60574 3.88938 S
atom 1.10781 7.32779 1.49092 C
atom 1.37842 10.03595 1.75324 C
atom 1.66641 11.29503 1.16580 C
atom 0.36256 11.22309 3.58392 C
atom 1.87618 12.33171 0.66474 N
atom 0.07583 12.22098 4.12273 N
atom 1.10956 6.06405 0.91091 C
atom 1.66922 5.69974 -0.32637 C
atom 2.10519 5.42110 -1.37615 N
atom -0.11883 6.12297 3.07634 N
atom 0.25422 4.95188 1.95608 S
