lattice_vector 9.22825299813 0 0
lattice_vector -0.00374591162331 9.67695532581 0
lattice_vector -0.00531472914817 -0.00499687512777 12.2104143225
atom 1.48320 7.20637 2.88483 S
atom 1.91681 7.46245 0.12885 C
atom 3.33324 9.05478 1.80987 C
atom 2.46101 9.14939 0.26085 S
atom 2.91538 8.23756 2.89332 C
atom 1.51137 6.68910 1.18296 C
atom 1.01181 5.38137 0.97743 C
atom 1.87736 6.96486 -1.19833 C
atom 0.58294 4.30142 0.84399 N
atom 1.83879 6.58467 -2.30429 N
atom 3.75426 8.44018 3.98417 C
atom 3.66155 7.85027 5.25931 C
atom 3.57160 7.36084 6.31786 N
atom 4.39348 9.81673 1.99621 N
atom 4.95742 9.63422 3.55051 S
atom 7.73412 2.37097 9.32292 S
atom 7.29864 2.62293 12.07884 C
atom 5.88101 4.21560 10.39929 C
atom 6.75299 4.30960 11.94839 S
atom 6.30040 3.40006 9.31513 C
atom 7.70581 1.85146 11.02405 C
atom 8.20754 0.54434 11.22827 C
atom 7.33792 2.12381 13.40545 C
atom 8.63967 -0.53447 11.36047 N
atom 7.37613 1.74190 14.51083 N
atom 5.46121 3.60206 8.22447 C
atom 5.55490 3.01323 6.94892 C
atom 5.64464 2.52501 5.88976 N
atom 4.81940 4.97575 10.21365 N
atom 4.25591 4.79360 8.65895 S
atom 7.73256 7.20280 8.99185 S
atom 7.30210 7.46441 6.23584 C
atom 5.88612 9.05592 7.91790 C
atom 6.75963 9.15192 6.36974 S
atom 6.30194 8.23610 9.00019 C
atom 7.70604 6.68903 7.28896 C
atom 8.20474 5.38122 7.08171 C
atom 7.34064 6.96836 4.90808 C
atom 8.63309 4.30115 6.94752 N
atom 7.37609 6.58964 3.80153 N
atom 5.46223 8.43740 10.09061 C
atom 5.55464 7.84550 11.36479 C
atom 5.64748 7.35674 12.42344 N
atom 4.82635 9.81841 8.10465 N
atom 4.26035 9.63319 9.65800 S
atom 1.48565 2.36352 3.21332 S
atom 1.91439 2.62450 5.96972 C
atom 3.33012 4.21771 4.28896 C
atom 2.45627 4.31210 5.83711 S
atom 2.91540 3.39785 3.20621 C
atom 1.51149 1.84921 4.91606 C
atom 1.01352 0.54112 5.12297 C
atom 1.87481 2.12763 7.29716 C
atom 0.58605 -0.53918 5.25821 N
atom 1.83829 1.74727 8.40312 N
atom 3.75517 3.60049 2.11612 C
atom 3.66375 3.00867 0.84185 C
atom 3.57116 2.52102 -0.21733 N
atom 4.38902 4.98140 4.10272 N
atom 4.95557 4.79745 2.54935 S
