# 
# This is the geometry file that corresponds to the current relaxation step.
# If you do not want this file to be written, set the "write_restart_geometry" flag to .false.
# 
lattice_vector     14.24805607     -0.00000000     -0.00000000
lattice_vector      5.53370470     14.21762431     -0.00000000
lattice_vector     -0.36285061      0.58317073      4.41934866
atom       5.17836882     -0.57494342      1.59928389 S
atom       3.85187608      0.59045220      3.49059830 C
atom       6.64767043      3.19169161      1.60049285 C
atom       5.96861899      3.87057770      3.12364038 S
atom       6.03448515      2.01214019      1.02315784 C
atom       3.81724420     -0.57168089      2.70139453 C
atom       2.84667682     -1.58198602      2.68360607 C
atom       2.72710114      1.04955541      4.21636484 C
atom       1.99645962     -2.39027720      2.64043910 N
atom       1.81404780      1.47133545      4.81377416 N
atom       5.97777415      1.82863939     -0.38232693 C
atom       5.35171196      0.84760517     -1.19393287 C
atom       5.84036948      0.53708485     -2.47966539 N
atom       7.61020413      3.99800701      1.22480258 N
atom       8.41704858      3.78228247     -0.22578019 S
atom      13.59249758      1.87806288      3.12479305 S
atom      10.87489248      1.49860201      3.44624945 C
atom      13.10196652      4.45572610      4.28289195 C
atom      11.45850357      4.20088075      4.88410187 S
atom      13.90648751      3.56562684      3.49894227 C
atom      11.88633187      1.82092770      2.57550173 C
atom      11.72155738      1.88142286      1.11150738 C
atom       9.58702704      1.06844648      2.98400862 C
atom      11.35590221      0.87738690      0.40655424 N
atom       8.53122060      0.68827885      2.66879438 N
atom      15.09416853      4.19802670      3.13628182 C
atom      16.20394948      3.75164937      2.39863868 C
atom      17.18809504      3.49718520      1.81714506 N
atom      13.60676080      5.66556811      4.50852051 N
atom      15.07725412      5.82401829      3.76764667 S
