lattice_vector 7.0546010554 0 0
lattice_vector -1.9506475013 8.71687952271 0
lattice_vector -0.0578133867766 -0.0343726599991 16.2939399856
atom 3.22083 1.72483 0.71091 S
atom 1.21565 0.41937 2.24126 C
atom 0.42190 2.13696 0.23580 C
atom -0.22986 1.20666 1.60017 S
atom 1.78731 2.34510 -0.09599 C
atom 2.52815 0.61808 1.89856 C
atom 3.54516 -0.11838 2.55895 C
atom 0.92652 -0.50988 3.27393 C
atom 4.41699 -0.71253 3.06388 N
atom 0.70783 -1.26952 4.13567 N
atom 1.87911 3.18850 -1.19725 C
atom 3.08379 3.61206 -1.79136 C
atom 4.12521 3.93622 -2.21324 N
atom -0.47585 2.73288 -0.52629 N
atom 0.27149 3.64041 -1.71165 S
atom -0.76582 2.61620 8.89064 S
atom 1.23300 3.94084 10.41267 C
atom 2.03585 2.22264 8.41278 C
atom 2.68092 3.15152 9.78105 S
atom 0.67160 2.00798 8.08063 C
atom -0.07887 3.73294 10.07230 C
atom -1.09745 4.46801 10.73124 C
atom 1.51698 4.88159 11.43616 C
atom -1.96700 5.06463 11.23731 N
atom 1.72765 5.64864 12.29321 N
atom 0.58451 1.16902 6.97542 C
atom -0.61810 0.74512 6.37722 C
atom -1.65904 0.42906 5.94798 N
atom 2.93699 1.63422 7.64885 N
atom 2.19444 0.72748 6.45953 S
atom 1.82496 6.95800 15.58298 S
atom 3.83011 8.26447 14.05317 C
atom 4.62395 6.54670 16.05840 C
atom 5.27590 7.47877 14.69543 S
atom 3.25856 6.33757 16.38959 C
atom 2.51758 8.06499 14.39542 C
atom 1.50066 8.80093 13.73439 C
atom 4.11873 9.19289 13.01966 C
atom 0.62999 9.39574 13.22817 N
atom 4.33684 9.95217 12.15749 N
atom 3.16689 5.49337 17.49023 C
atom 1.96242 5.06955 18.08457 C
atom 0.92117 4.74516 18.50670 N
atom 5.52169 5.95052 16.82034 N
atom 4.77465 5.04176 18.00452 S
atom 5.81174 6.06826 7.40236 S
atom 3.81347 4.74030 5.88214 C
atom 3.00991 6.45821 7.88188 C
atom 2.36512 5.52822 6.51420 S
atom 4.37397 6.67454 8.21340 C
atom 5.12521 4.94962 6.22202 C
atom 6.14436 4.21458 5.56374 C
atom 3.53045 3.79917 4.85871 C
atom 7.01645 3.62105 5.05849 N
atom 3.32057 3.03240 4.00124 N
atom 4.46059 7.51367 9.31853 C
atom 5.66300 7.93853 9.91634 C
atom 6.70332 8.25585 10.34612 N
atom 2.10850 7.04581 8.64622 N
atom 2.85039 7.95361 9.83479 S
