lattice_vector 5.48856003592 0.0 0.0
lattice_vector 0.00466677163774 8.30629091824 0.0
lattice_vector 0.0516158958732 0.0168693325293 10.6104183939
atom 5.78533 1.16256 1.72005 O
atom 4.99201 1.24896 0.58398 C
atom 5.23868 2.06313 -0.08849 H
atom 4.07852 0.24053 0.63464 C
atom 2.91810 -0.65324 0.21248 C
atom 3.07554 -1.23845 -0.70318 H
atom 1.94469 -0.15142 0.14983 H
atom 3.16133 -1.46190 1.55400 C
atom 3.46106 -2.50970 1.42379 H
atom 2.32448 -1.42630 2.26259 H
atom 4.30381 -0.49276 1.83419 C
atom 5.35148 0.08618 2.48164 C
atom 5.89469 -0.06642 3.40548 H
atom -0.25486 5.32710 8.88129 O
atom 0.53856 5.41711 10.01736 C
atom 0.29281 6.23341 10.68983 H
atom 1.45092 4.40851 9.96670 C
atom 2.61033 3.51608 10.38886 C
atom 2.45224 2.93378 11.30452 H
atom 3.58431 4.01810 10.45151 H
atom 2.36619 2.70316 9.04733 C
atom 2.06529 1.65578 9.17755 H
atom 3.20308 2.73651 8.33875 H
atom 1.22481 3.67141 8.76715 C
atom 0.17778 4.24829 8.11970 C
atom -0.36560 4.09276 7.19586 H
atom 5.79670 5.31866 3.57608 O
atom 5.01443 5.40867 4.71215 C
atom 5.26764 6.22498 5.38462 H
atom 4.10044 4.40008 4.66149 C
atom 2.94413 3.50765 5.08365 C
atom 3.11048 2.92535 5.99931 H
atom 1.97133 4.00966 5.14630 H
atom 3.17431 2.69473 3.74212 C
atom 3.47530 1.64734 3.87234 H
atom 2.33057 2.72807 3.03354 H
atom 4.31406 3.66298 3.46194 C
atom 5.35543 4.23986 2.81449 C
atom 5.88965 4.08432 1.89065 H
atom -0.26622 1.17100 7.02525 O
atom 0.51615 1.25740 5.88919 C
atom 0.26385 2.07156 5.21672 H
atom 1.42900 0.24897 5.93985 C
atom 2.58430 -0.64481 5.51769 C
atom 2.41730 -1.23002 4.60203 H
atom 3.55767 -0.14299 5.45504 H
atom 2.35322 -1.45346 6.85921 C
atom 2.05105 -2.50126 6.72900 H
atom 3.19700 -1.41786 7.56780 H
atom 1.21456 -0.48432 7.13940 C
atom 0.17383 0.09462 7.78685 C
atom -0.36056 -0.05798 8.71069 H
