lattice_vector 6.39196105051 0 0
lattice_vector 0.00879565205839 10.9747167132 0
lattice_vector 0.0704030948488 0.00382428875826 14.4946876278
atom 7.17593 7.89275 4.53924 S
atom 5.60197 7.04051 6.70956 C
atom 5.12557 5.95114 4.24672 C
atom 4.25629 6.43583 5.72068 S
atom 6.32438 6.55095 3.77602 C
atom 6.76158 7.60203 6.24189 C
atom 7.78126 8.04768 7.11946 C
atom 5.36517 6.90163 8.09906 C
atom 8.67921 8.42350 7.76827 N
atom 5.11948 6.77655 9.23558 N
atom 6.73200 5.92288 2.60736 C
atom 7.88512 6.15450 1.83773 C
atom 8.84402 6.32365 1.19053 N
atom 4.61943 4.96068 3.53855 N
atom 5.56242 4.69956 2.19369 S
atom 2.45122 2.40828 2.70535 S
atom 4.02546 1.55245 0.53644 C
atom 4.50195 0.46746 3.00150 C
atom 5.37077 0.94810 1.52591 S
atom 3.30295 1.06791 3.47096 C
atom 2.86610 2.11509 1.00331 C
atom 1.84711 2.56002 0.12458 C
atom 4.26182 1.41180 -0.85298 C
atom 0.94972 2.93471 -0.52565 N
atom 4.50664 1.28571 -1.98957 N
atom 2.89544 0.44170 4.64067 C
atom 1.74227 0.67331 5.41012 C
atom 0.78395 0.84208 6.05824 N
atom 5.00848 -0.52137 3.71172 N
atom 4.06527 -0.78049 5.05686 S
atom -0.70463 3.08547 9.95558 S
atom 0.86927 3.93808 7.78540 C
atom 1.34531 5.02744 10.24830 C
atom 2.21485 4.54263 8.77453 S
atom 0.14652 4.42749 10.71887 C
atom -0.29033 3.37645 8.25294 C
atom -1.31000 2.93090 7.37531 C
atom 1.10615 4.07724 6.39595 C
atom -2.20794 2.55517 6.72644 N
atom 1.35198 4.20256 5.25949 N
atom -0.26138 5.05562 11.88740 C
atom -1.41461 4.82398 12.65687 C
atom -2.37358 4.65490 13.30397 N
atom 1.85116 6.01810 10.95642 N
atom 0.90794 6.27917 12.30111 S
atom 4.02029 8.57016 11.78926 S
atom 2.44584 9.42597 13.95804 C
atom 1.96939 10.51076 11.49289 C
atom 1.10054 10.03015 12.96847 S
atom 3.16852 9.91044 11.02354 C
atom 3.60526 8.86339 13.49125 C
atom 4.62417 8.41861 14.37014 C
atom 2.20945 9.56670 15.34744 C
atom 5.52142 8.04424 15.02073 N
atom 1.96466 9.69283 16.48404 N
atom 3.57600 10.53668 9.85383 C
atom 4.72920 10.30533 9.08434 C
atom 5.68749 10.13700 8.43606 N
atom 1.46278 11.49948 10.78260 N
atom 2.40604 11.75869 9.43752 S
