lattice_vector 4.830373 0.0 0.0
lattice_vector 3.89601111244e-16 4.830373 0.0
lattice_vector 0.0483795758802 4.32335796539e-16 5.40837161911
atom 1.20497 4.69113 2.09160 C
atom 0.86416 4.38669 0.66070 C
atom 1.14782 3.36382 0.42816 H
atom -0.20567 4.49993 0.52303 H
atom 1.57521 5.30845 -0.21415 N
atom 1.19223 6.23368 -0.08161 H
atom 2.55956 5.32993 0.01499 H
atom 1.45770 5.02600 -1.18031 H
atom 1.13651 3.74374 2.89496 O
atom 1.57784 5.84018 2.41895 O
atom 3.82686 1.43234 4.70395 C
atom 4.10827 1.20218 3.24538 C
atom 5.09085 1.58654 3.01247 H
atom 4.08130 0.13475 3.04036 H
atom 3.09919 1.85646 2.42565 N
atom 2.24614 1.31592 2.46638 H
atom 2.91492 2.78841 2.77554 H
atom 3.40115 1.88697 1.45874 H
atom 3.98464 0.45537 5.46359 O
atom 3.40898 2.54425 5.09198 O
