lattice_vector 6.10990578396 0.0 0.0
lattice_vector 2.65235750639 6.55778578185 0.0
lattice_vector 0.862992890579 0.186866589757 12.921501269
atom 3.80921 -0.07188 1.49168 O
atom 5.19455 -0.07775 1.46371 C
atom 5.64363 -1.05694 1.35160 H
atom 5.62271 1.20732 1.59466 C
atom 6.58256 2.38274 1.73278 C
atom 7.21741 2.38006 2.62904 H
atom 7.19918 2.58526 0.84979 H
atom 5.30619 3.30596 1.85759 C
atom 5.22932 3.82151 2.82298 H
atom 5.19618 4.03675 1.04624 H
atom 4.47109 2.03822 1.70892 C
atom 3.37372 1.23501 1.64701 C
atom 2.29688 1.34997 1.68553 H
atom 4.27759 5.39768 8.07259 O
atom 2.92039 5.23165 8.28605 C
atom 2.35942 6.15454 8.37065 H
atom 2.65756 3.89540 8.30602 C
atom 1.86583 2.59712 8.42340 C
atom 1.11683 2.42213 7.64104 H
atom 1.41231 2.40962 9.40518 H
atom 3.23194 1.83751 8.18636 C
atom 3.25269 1.24092 7.26460 H
atom 3.54352 1.21110 9.03263 H
atom 3.88951 3.21098 8.09635 C
atom 4.86619 4.15052 7.96137 C
atom 5.93954 4.16451 7.81749 H
atom 5.81605 6.81654 11.42982 O
atom 4.43071 6.82240 11.45779 C
atom 3.98163 7.80159 11.56990 H
atom 4.00255 5.53734 11.32685 C
atom 3.04270 4.36192 11.18873 C
atom 2.40785 4.36459 10.29246 H
atom 2.42607 4.15939 12.07171 H
atom 4.31907 3.43869 11.06391 C
atom 4.39593 2.92314 10.09852 H
atom 4.42907 2.70790 11.87526 H
atom 5.15417 4.70643 11.21258 C
atom 6.25154 5.50965 11.27450 C
atom 7.32837 5.39468 11.23598 H
atom 5.34767 1.34697 4.84891 O
atom 6.70487 1.51300 4.63545 C
atom 7.26584 0.59011 4.55085 H
atom 6.96769 2.84925 4.61548 C
atom 7.75943 4.14753 4.49810 C
atom 8.50843 4.32252 5.28046 H
atom 8.21294 4.33503 3.51632 H
atom 6.39331 4.90714 4.73515 C
atom 6.37257 5.50374 5.65690 H
atom 6.08174 5.53355 3.88887 H
atom 5.73574 3.53367 4.82515 C
atom 4.75907 2.59413 4.96013 C
atom 3.68572 2.58014 5.10401 H
