lattice_vector 4.76025675396 0.0 0.0
lattice_vector -0.00882591919818 -9.60680002118 0.0
lattice_vector -0.109179885667 0.0163715314944 -11.0199963078
atom -0.30845 -5.63078 -9.62052 O
atom 0.11515 -6.45660 -10.65200 C
atom -0.38683 -6.30430 -11.59964 H
atom 1.11602 -7.24343 -10.17284 C
atom 2.23186 -8.27795 -10.17170 C
atom 3.07739 -8.04634 -10.83184 H
atom 1.92338 -9.31814 -10.33058 H
atom 2.46927 -7.90410 -8.65222 C
atom 3.45290 -7.46038 -8.45204 H
atom 2.28069 -8.72629 -7.94982 H
atom 1.32755 -6.90325 -8.80695 C
atom 0.44675 -5.91567 -8.49061 C
atom 0.21678 -5.29963 -7.62998 H
atom 4.93751 -3.95809 -2.44879 O
atom 4.51390 -3.13226 -1.41732 C
atom 5.01588 -3.28457 -0.46968 H
atom 3.51304 -2.34544 -1.89648 C
atom 2.39719 -1.31092 -1.89761 C
atom 1.55166 -1.54253 -1.23747 H
atom 2.70567 -0.27073 -1.73873 H
atom 2.15978 -1.68477 -3.41709 C
atom 1.17615 -2.12848 -3.61728 H
atom 2.34836 -0.86258 -4.11949 H
atom 3.30150 -2.68562 -3.26237 C
atom 4.18230 -3.67320 -3.57870 C
atom 4.41227 -4.28924 -4.43933 H
atom 4.88578 -0.82985 -7.95879 O
atom 4.46066 -1.65874 -6.92731 C
atom 4.96291 -1.50925 -5.97967 H
atom 3.45835 -2.44414 -7.40647 C
atom 2.34061 -3.47865 -7.40761 C
atom 1.49549 -3.24901 -6.74747 H
atom 2.64717 -4.51932 -7.24873 H
atom 2.10388 -3.10029 -8.92709 C
atom 1.12107 -2.65598 -9.12727 H
atom 2.29095 -3.92040 -9.62949 H
atom 3.24744 -2.09990 -8.77236 C
atom 4.13006 -1.11138 -9.08870 C
atom 4.36116 -0.49278 -9.94933 H
atom -0.25673 -8.75902 -4.11052 O
atom 0.16839 -7.93013 -5.14200 C
atom -0.33386 -8.07962 -6.08964 H
atom 1.17070 -7.14473 -4.66284 C
atom 2.28845 -6.11021 -4.66170 C
atom 3.13356 -6.33986 -5.32185 H
atom 1.98188 -5.06955 -4.82058 H
atom 2.52517 -6.48858 -3.14222 C
atom 3.50798 -6.93289 -2.94204 H
atom 2.33810 -5.66847 -2.43982 H
atom 1.38161 -7.48897 -3.29695 C
atom 0.49899 -8.47749 -2.98061 C
atom 0.26789 -9.09609 -2.11998 H
