lattice_vector 7.05440216015 0 0
lattice_vector 0.060915127196 10.4832063695 0
lattice_vector 0.3397791436 0.267865974191 13.30105115
atom 2.77945 4.34100 8.49501 S
atom 4.69625 6.44015 8.47671 C
atom 5.60120 3.85023 8.39242 C
atom 6.16823 5.49822 8.71557 S
atom 4.25956 3.39363 8.33780 C
atom 3.39903 5.99429 8.40702 C
atom 2.34719 6.94204 8.31923 C
atom 4.92899 7.84045 8.44779 C
atom 1.44909 7.69163 8.29166 N
atom 5.09714 8.99671 8.46123 N
atom 4.24335 2.01725 8.12956 C
atom 3.08221 1.23174 8.01333 C
atom 2.06853 0.65092 7.95407 N
atom 6.54792 2.94644 8.21771 N
atom 5.88737 1.43148 8.02730 S
atom -1.17002 6.36374 4.84035 S
atom 0.74032 4.25495 4.86679 C
atom 1.65549 6.84436 4.91706 C
atom 2.22114 5.18494 4.65376 S
atom 0.31623 7.30408 4.98741 C
atom -0.55517 4.70840 4.92225 C
atom -1.61092 3.76412 4.99122 C
atom 0.95414 2.85139 4.89696 C
atom -2.51228 3.01812 5.01185 N
atom 1.08679 1.69062 4.88970 N
atom 0.30611 8.68661 5.15386 C
atom -0.85175 9.48091 5.24407 C
atom -1.85605 10.07926 5.29498 N
atom 2.60555 7.75259 5.03791 N
atom 1.95385 9.27223 5.20849 S
atom 2.02566 9.81723 11.12187 S
atom 3.87453 11.92061 11.61156 C
atom 4.76338 9.32271 11.79079 C
atom 5.37034 10.98330 11.66002 S
atom 3.43005 8.86860 11.61322 C
atom 2.59486 11.46887 11.39943 C
atom 1.52575 12.40095 11.34810 C
atom 4.09275 13.31407 11.76893 C
atom 0.60960 13.12719 11.30308 N
atom 4.26476 14.46650 11.85658 N
atom 3.38374 7.48777 11.79172 C
atom 2.23928 6.67465 11.68849 C
atom 1.26579 6.03557 11.57674 N
atom 5.67716 8.41179 12.06665 N
atom 4.99631 6.89419 12.12526 S
atom 5.12044 0.99519 2.13162 S
atom 6.96619 -1.12124 1.67855 C
atom 7.87128 1.47136 1.49505 C
atom 8.46646 -0.19494 1.59931 S
atom 6.54180 1.93554 1.67352 C
atom 5.68871 -0.66011 1.88283 C
atom 4.61731 -1.58895 1.94494 C
atom 7.17290 -2.51979 1.55345 C
atom 3.69968 -2.31319 1.99047 N
atom 7.32769 -3.67618 1.49036 N
atom 6.51016 3.31984 1.51963 C
atom 5.37167 4.13950 1.63689 C
atom 4.40136 4.78091 1.76298 N
atom 8.79491 2.37842 1.23923 N
atom 8.12942 3.90344 1.20064 S
