lattice_vector 6.5002032663 0.0 0.0
lattice_vector 3.20910881186 5.86088158785 0.0
lattice_vector 0.989182985318 0.221526099246 13.1351446947
atom 2.05229 1.37171 8.15718 O
atom 3.41156 1.54246 7.94936 C
atom 3.95659 0.63252 7.73023 H
atom 3.69345 2.86723 8.08124 C
atom 4.50276 4.15833 8.08886 C
atom 4.94778 4.45046 7.12816 H
atom 5.26045 4.22707 8.87758 H
atom 3.15192 4.90809 8.42069 C
atom 2.84349 5.62149 7.64634 H
atom 3.14024 5.40638 9.39845 H
atom 2.47449 3.54209 8.37854 C
atom 1.48384 2.60916 8.41665 C
atom 0.41446 2.58669 8.59044 H
atom 6.21721 3.83028 1.50235 O
atom 4.86000 3.66425 1.71581 C
atom 4.29903 4.58714 1.80041 H
atom 4.59718 2.32800 1.73579 C
atom 3.80544 1.02972 1.85316 C
atom 3.05644 0.85473 1.07081 H
atom 3.35193 0.84222 2.83494 H
atom 5.17156 0.27011 1.61612 C
atom 5.19230 -0.32649 0.69436 H
atom 5.48313 -0.35630 2.46240 H
atom 5.82913 1.64358 1.52611 C
atom 6.80581 2.58311 1.39114 C
atom 7.87916 2.59710 1.24726 H
atom 8.64618 4.71071 4.97803 O
atom 7.28692 4.53995 5.18567 C
atom 6.74187 5.44990 5.40476 H
atom 7.00504 3.21517 5.05382 C
atom 6.19572 1.92407 5.04619 C
atom 5.75061 1.63199 6.00685 H
atom 5.43815 1.85527 4.25742 H
atom 7.54657 1.17431 4.71453 C
atom 7.85490 0.46099 5.48894 H
atom 7.55839 0.67595 3.73687 H
atom 8.22400 2.54031 4.75665 C
atom 9.21465 3.47325 4.71855 C
atom 10.28404 3.49572 4.54484 H
atom 4.48130 2.25213 11.63285 O
atom 5.83850 2.41816 11.41934 C
atom 6.39946 1.49527 11.33475 H
atom 6.10132 3.75441 11.39935 C
atom 6.89306 5.05269 11.28197 C
atom 7.64206 5.22768 12.06433 H
atom 7.34657 5.24019 10.30020 H
atom 5.52694 5.81230 11.51902 C
atom 5.50620 6.40889 12.44078 H
atom 5.21537 6.43871 10.67274 H
atom 4.86937 4.43883 11.60903 C
atom 3.89269 3.49930 11.74401 C
atom 2.81935 3.48531 11.88789 H
