lattice_vector 7.43247514691 0 0
lattice_vector 1.74675747288 10.4289557249 0
lattice_vector 0.656774401487 0.0878316270648 13.0150466668
atom 3.73657 8.67616 5.33355 S
atom 5.37871 9.70244 7.37397 C
atom 3.01395 8.58558 8.07228 C
atom 4.01914 9.99336 8.48283 S
atom 2.89987 8.05592 6.76011 C
atom 5.26320 9.17103 6.11446 C
atom 6.42542 9.00201 5.32141 C
atom 6.65832 10.07700 7.85821 C
atom 7.40213 8.88311 4.69033 N
atom 7.72601 10.39123 8.21703 N
atom 2.03948 6.96387 6.77485 C
atom 1.68555 6.11339 5.71129 C
atom 1.41956 5.36576 4.85198 N
atom 2.33100 7.99691 9.03326 N
atom 1.44690 6.74089 8.40311 S
atom 7.51949 3.05185 7.69870 S
atom 8.86434 2.10852 5.44521 C
atom 6.46420 3.26510 5.10252 C
atom 7.33338 1.79692 4.59358 S
atom 6.54311 3.77566 6.42490 C
atom 8.93889 2.61182 6.71721 C
atom 10.18544 2.81865 7.35517 C
atom 10.04318 1.80687 4.71904 C
atom 11.20394 2.96191 7.91317 N
atom 11.01779 1.53076 4.13393 N
atom 5.75630 4.91336 6.54130 C
atom 5.51094 5.70064 7.68131 C
atom 5.29966 6.35931 8.62506 N
atom 5.71105 3.92102 4.24053 N
atom 4.99891 5.21782 4.99924 S
atom 3.21582 6.87505 -1.18414 S
atom 4.91702 5.99215 0.84596 C
atom 2.58352 7.06497 1.55873 C
atom 3.53925 5.60126 1.90126 S
atom 2.43697 7.57463 0.24045 C
atom 4.78118 6.49224 -0.42361 C
atom 5.93205 6.72791 -1.21562 C
atom 6.20709 5.75742 1.38044 C
atom 6.89731 6.87730 -1.85895 N
atom 7.27666 5.53466 1.79828 N
atom 1.63246 8.70795 0.26673 C
atom 1.27399 9.55458 -0.79838 C
atom 1.00886 10.29893 -1.66082 N
atom 1.98476 7.71005 2.53819 N
atom 1.12846 8.99180 1.91763 S
atom 5.96396 2.26041 14.24399 S
atom 7.28043 3.19481 11.95552 C
atom 4.91456 1.92214 11.64139 C
atom 5.77577 3.35093 11.01844 S
atom 5.01156 1.47068 12.98661 C
atom 7.36366 2.73636 13.24332 C
atom 8.61920 2.59461 13.88324 C
atom 8.45748 3.57277 11.25918 C
atom 9.64730 2.46178 14.42536 N
atom 9.42304 3.90546 10.68795 N
atom 4.24580 0.32475 13.15377 C
atom 4.03726 -0.46068 14.30205 C
atom 3.85419 -1.15279 15.22701 N
atom 4.15553 1.22596 10.81771 N
atom 3.47822 -0.04989 11.63389 S
