lattice_vector 7.02119518888 0 0
lattice_vector 0.246037749431 10.2139271985 0
lattice_vector 1.05004090418 1.53967748717 13.4963540727
atom 1.54624 2.28783 -1.49568 S
atom 1.67069 4.45104 0.32184 C
atom 1.40524 1.91978 1.33440 C
atom 1.05759 3.61036 1.75339 S
atom 1.59410 1.39746 0.02650 C
atom 1.85659 3.93767 -0.93884 C
atom 2.35880 4.76335 -1.97908 C
atom 1.93717 5.82218 0.56360 C
atom 2.78661 5.40062 -2.86158 N
atom 2.12580 6.95391 0.78461 N
atom 1.77714 0.01964 0.09877 C
atom 1.97300 -0.85087 -0.99120 C
atom 2.13263 -1.54357 -1.92001 N
atom 1.44913 1.06594 2.33529 N
atom 1.69763 -0.48534 1.77786 S
atom 5.69721 8.65589 8.27254 S
atom 5.72637 6.49514 6.45458 C
atom 5.58819 9.03205 5.44839 C
atom 5.07977 7.37704 5.06352 S
atom 5.81200 9.54842 6.75303 C
atom 5.96502 6.99631 7.71127 C
atom 6.50517 6.15574 8.72035 C
atom 5.95095 5.12402 6.17349 C
atom 6.98627 5.49394 9.55670 N
atom 6.09706 3.99617 5.90374 N
atom 6.06482 10.91524 6.67148 C
atom 6.28246 11.79645 7.74712 C
atom 6.45088 12.51180 8.65659 N
atom 5.67971 9.87413 4.43985 N
atom 6.00163 11.41202 4.98916 S
atom 6.77115 9.46708 14.99221 S
atom 6.64740 7.30398 13.17461 C
atom 6.91130 9.83539 12.16218 C
atom 7.26022 8.14503 11.74317 S
atom 6.72245 10.35758 13.47015 C
atom 6.46138 7.81717 14.43534 C
atom 5.95951 6.99119 15.47551 C
atom 6.38117 5.93282 12.93277 C
atom 5.53197 6.35373 16.35800 N
atom 6.19258 4.80102 12.71207 N
atom 6.53881 11.73532 13.39799 C
atom 6.34217 12.60573 14.48794 C
atom 6.18175 13.29887 15.41632 N
atom 6.86677 10.68922 11.16136 N
atom 6.61787 12.24039 11.71888 S
atom 2.62054 3.09635 5.22354 S
atom 2.59161 5.25701 7.04162 C
atom 2.72916 2.72012 8.04772 C
atom 3.23802 4.37502 8.43269 S
atom 2.50548 2.20378 6.74303 C
atom 2.35294 4.75592 5.78490 C
atom 1.81288 5.59671 4.77594 C
atom 2.36708 6.62813 7.32267 C
atom 1.33194 6.25863 3.93959 N
atom 2.22091 7.75596 7.59247 N
atom 2.25243 0.83699 6.82458 C
atom 2.03447 -0.04419 5.74896 C
atom 1.86589 -0.75953 4.83951 N
atom 2.63727 1.87811 9.05626 N
atom 2.31521 0.34026 8.50696 S
