lattice_vector 7.45851271555 0 0
lattice_vector 0.0364785987959 7.65520591262 0
lattice_vector 0.0152110780743 3.11787600321 8.60284581052
atom 5.34847 6.76678 1.51112 O
atom 4.01889 6.39771 1.65550 C
atom 3.81713 5.72830 2.48133 H
atom 3.30451 7.00167 0.66843 C
atom 2.09975 7.42240 -0.15808 C
atom 1.37180 8.03515 0.38992 H
atom 1.58704 6.60748 -0.68367 H
atom 3.10873 8.26001 -1.05060 C
atom 2.91972 9.34164 -1.04355 H
atom 3.20038 7.91550 -2.08854 H
atom 4.20912 7.76871 -0.11834 C
atom 5.45065 7.61558 0.41761 C
atom 6.44616 8.00410 0.24290 H
atom 2.19622 8.32253 5.81946 O
atom 3.52802 7.96044 5.96143 C
atom 3.73508 7.29725 6.79041 H
atom 4.23717 8.56583 4.97162 C
atom 5.43715 8.98449 4.13752 C
atom 6.16845 9.59941 4.67863 H
atom 5.94601 8.16731 3.61202 H
atom 4.42279 9.81713 3.24642 C
atom 4.60936 10.89908 3.24881 H
atom 4.32755 9.46880 2.21025 H
atom 3.32690 9.32670 4.18500 C
atom 2.08731 9.16765 4.72364 C
atom 1.08895 9.54878 4.54969 H
atom 1.57641 2.93360 1.52702 O
atom 0.24237 2.57526 1.65809 C
atom 0.02611 1.91082 2.48390 H
atom -0.45654 3.18188 0.66194 C
atom -1.64885 3.60420 -0.18152 C
atom -2.38131 4.22292 0.35360 H
atom -2.15704 2.78862 -0.70997 H
atom -0.62477 4.43318 -1.06489 C
atom -0.80796 5.51575 -1.06374 H
atom -0.52274 4.08495 -2.10054 H
atom 0.46200 3.93976 -0.11753 C
atom 1.69669 3.77796 0.43202 C
atom 2.69740 4.15700 0.26629 H
atom 5.91946 4.48903 5.81685 O
atom 7.25205 4.12798 5.95464 C
atom 7.46116 3.45736 6.77736 H
atom 7.95914 4.74142 4.96838 C
atom 9.15756 5.16578 4.13485 C
atom 9.88720 5.78111 4.67745 H
atom 9.66808 4.35177 3.60620 H
atom 8.14030 6.00040 3.24859 C
atom 8.32632 7.08237 3.25305 H
atom 8.04279 5.65507 2.21154 H
atom 7.04698 5.50573 4.18754 C
atom 5.80811 5.34122 4.72654 C
atom 4.80962 5.72503 4.55840 H
