lattice_vector 7.55620652638 0 0
lattice_vector 0.0230430489931 11.2822554562 0
lattice_vector 0.016554789436 0.00972965960412 11.7588630826
atom 3.87402 2.76800 7.23827 S
atom 5.29472 0.44630 7.85766 C
atom 3.29435 1.19030 9.49542 C
atom 4.97257 0.60481 9.59892 S
atom 2.83133 2.05437 8.46953 C
atom 4.87622 1.33682 6.90256 C
atom 5.15243 1.10334 5.53488 C
atom 5.94937 -0.74970 7.47195 C
atom 5.35922 0.89699 4.40217 N
atom 6.45198 -1.75415 7.14697 N
atom 1.46879 2.27841 8.62427 C
atom 0.60997 3.07635 7.84604 C
atom -0.13006 3.73272 7.22316 N
atom 2.41419 0.77346 10.38884 N
atom 0.93063 1.45100 10.06168 S
atom 3.71024 2.88117 1.36731 S
atom 2.29068 5.20451 1.98374 C
atom 4.29549 4.46627 3.61822 C
atom 2.61725 5.05121 3.72470 S
atom 4.75585 3.59929 2.59355 C
atom 2.70605 4.31068 1.03030 C
atom 2.42373 4.53909 -0.33708 C
atom 1.63554 6.39957 1.59601 C
atom 2.21031 4.74124 -1.46935 N
atom 1.13463 7.40414 1.26873 N
atom 6.11870 3.37525 2.74578 C
atom 6.97613 2.57582 1.96768 C
atom 7.71477 1.91797 1.34471 N
atom 5.17802 4.88530 4.50834 N
atom 6.66032 4.20609 4.17984 S
atom 3.72171 8.52391 4.52049 S
atom 2.30104 10.84565 3.90126 C
atom 4.30140 10.10172 2.26345 C
atom 2.62317 10.68719 2.16002 S
atom 4.76442 9.23760 3.28929 C
atom 2.71955 9.95508 4.85630 C
atom 2.44347 10.18857 6.22401 C
atom 1.64640 12.04163 4.28701 C
atom 2.23678 10.39505 7.35670 N
atom 1.14381 13.04607 4.61205 N
atom 6.12696 9.01362 3.13457 C
atom 6.98582 8.21574 3.91282 C
atom 7.72591 7.55943 4.53570 N
atom 5.18155 10.51861 1.37005 N
atom 6.66515 9.84114 1.69724 S
atom 3.88561 8.41071 10.39160 S
atom 5.30505 6.08735 9.77504 C
atom 3.30023 6.82572 8.14064 C
atom 4.97843 6.24063 8.03413 S
atom 2.83996 7.69270 9.16533 C
atom 4.88976 6.98117 10.72854 C
atom 5.17223 6.75277 12.09590 C
atom 5.96025 4.89229 10.16272 C
atom 5.38576 6.55061 13.22815 N
atom 6.46118 3.88773 10.49000 N
atom 1.47711 7.91683 9.01312 C
atom 0.61973 8.71632 9.79123 C
atom -0.11891 9.37417 10.41421 N
atom 2.41769 6.40681 7.25049 N
atom 0.93543 7.08611 7.57903 S
