lattice_vector 5.49005851063 0.0 0.0
lattice_vector 0.00217313102257 8.32534930386 0.0
lattice_vector 0.0413154023507 0.0156402508666 10.5717247714
atom 6.22625 2.35407 2.01958 O
atom 5.43292 2.44047 0.88352 C
atom 5.67959 3.25464 0.21105 H
atom 4.51943 1.43204 0.93418 C
atom 3.35901 0.53826 0.51202 C
atom 3.51645 -0.04695 -0.40364 H
atom 2.38560 1.04008 0.44936 H
atom 3.60224 -0.27039 1.85354 C
atom 3.90197 -1.31819 1.72332 H
atom 2.76540 -0.23479 2.56212 H
atom 4.74472 0.69875 2.13372 C
atom 5.79239 1.27769 2.78117 C
atom 6.33560 1.12509 3.70501 H
atom -0.70589 6.52640 8.54310 O
atom 0.08748 6.61616 9.67916 C
atom -0.15877 7.43231 10.35163 H
atom 1.00044 5.60758 9.62850 C
atom 2.16039 4.71505 10.05066 C
atom 2.00265 4.13255 10.96632 H
atom 3.13407 5.21705 10.11332 H
atom 1.91674 3.90243 8.70914 C
atom 1.61647 2.85501 8.83936 H
atom 2.75361 3.93593 8.00055 H
atom 0.77477 4.87074 8.42896 C
atom -0.27260 5.44776 7.78151 C
atom -0.81589 5.29243 6.85766 H
atom 6.23217 6.51858 3.25724 O
atom 5.44773 6.60834 4.39330 C
atom 5.69965 7.42449 5.06577 H
atom 4.53384 5.59976 4.34264 C
atom 3.37672 4.70723 4.76480 C
atom 3.54132 4.12473 5.68046 H
atom 2.40379 5.20923 4.82745 H
atom 3.60946 3.89461 3.42328 C
atom 3.91021 2.84719 3.55349 H
atom 2.76708 3.92811 2.71469 H
atom 4.74975 4.86292 3.14309 C
atom 5.79236 5.43994 2.49564 C
atom 6.32835 5.28461 1.57180 H
atom -0.71182 2.36189 7.30544 O
atom 0.07267 2.44829 6.16938 C
atom -0.17883 3.26246 5.49691 H
atom 0.98603 1.43986 6.22004 C
atom 2.14269 0.54608 5.79788 C
atom 1.97779 -0.03913 4.88222 H
atom 3.11588 1.04790 5.73522 H
atom 1.90952 -0.26257 7.13940 C
atom 1.60823 -1.31037 7.00918 H
atom 2.75192 -0.22697 7.84799 H
atom 0.76974 0.70657 7.41959 C
atom -0.27257 1.28551 8.06703 C
atom -0.80864 1.13291 8.99088 H
