lattice_vector 4.617124 0.0 0.0
lattice_vector 2.21607312288 4.1113336057 0.0
lattice_vector 1.70727949971 -2.61893647148 7.5493772325
atom -13.46425 -2.63659 -8.20787 C
atom -13.38581 -1.99398 -9.56037 C
atom -12.44350 -2.26344 -10.02339 H
atom -14.20582 -2.36789 -10.16169 H
atom -13.49002 -0.54203 -9.47645 N
atom -13.47052 -0.17273 -10.41998 H
atom -14.35362 -0.28611 -9.01600 H
atom -12.70563 -0.18243 -8.95032 H
atom -13.39620 -3.88225 -8.17655 O
atom -13.62397 -1.90759 -7.21156 O
atom -8.57378 3.51647 -12.09884 C
atom -9.30974 2.44210 -12.85794 C
atom -10.01126 1.95422 -12.19140 H
atom -9.85741 2.90090 -13.67571 H
atom -8.38700 1.43669 -13.38893 N
atom -7.80037 1.85066 -14.10223 H
atom -7.80728 1.05881 -12.65081 H
atom -8.92900 0.68346 -13.79172 H
atom -9.21234 4.27469 -11.34035 O
atom -7.33169 3.55377 -12.17955 O
