lattice_vector 7.04233744004 0 0
lattice_vector 0.0414586882323 10.3155343176 0
lattice_vector 0.0229926076333 0.00594108067848 13.7867512221
atom 3.63226 4.51424 2.09198 S
atom 3.50474 2.36734 3.94293 C
atom 3.24433 4.92891 4.90551 C
atom 3.70245 3.29926 5.44036 S
atom 3.22426 5.40369 3.56302 C
atom 3.52366 2.84570 2.65494 C
atom 3.49195 1.92314 1.57557 C
atom 3.34751 0.97912 4.17743 C
atom 3.50451 1.16577 0.68580 N
atom 3.21375 -0.16223 4.39467 N
atom 2.85155 6.74522 3.55320 C
atom 2.64945 7.60886 2.45985 C
atom 2.45181 8.35693 1.58301 N
atom 2.92315 5.78341 5.85872 N
atom 2.60892 7.27708 5.19864 S
atom 7.17402 5.79445 11.68910 S
atom 7.05508 7.94218 9.83849 C
atom 6.77111 5.38296 8.87710 C
atom 7.24153 7.00853 8.34056 S
atom 6.75283 4.90823 10.21977 C
atom 7.07552 7.46377 11.12647 C
atom 7.05608 8.38649 12.20606 C
atom 6.90878 9.33150 9.60406 C
atom 7.07948 9.14270 13.09666 N
atom 6.78510 10.47391 9.38630 N
atom 6.36925 3.56968 10.23096 C
atom 6.16591 2.70671 11.32469 C
atom 5.96657 1.95948 12.20197 N
atom 6.43913 4.53109 7.92527 N
atom 6.11536 3.04009 8.58642 S
atom 3.66400 9.67830 11.68841 S
atom 3.53174 7.53106 9.83783 C
atom 3.26776 10.09270 8.87583 C
atom 3.72263 8.46279 8.33934 S
atom 3.25239 10.56781 10.21835 C
atom 3.55562 8.00952 11.12578 C
atom 3.53087 7.08677 12.20525 C
atom 3.37539 6.14257 9.60408 C
atom 3.55217 6.32820 13.09383 N
atom 3.24027 5.00135 9.38721 N
atom 2.88142 11.90975 10.22886 C
atom 2.68543 12.77440 11.32256 C
atom 2.49313 13.52300 12.20013 N
atom 2.94474 10.94736 7.92347 N
atom 2.63375 12.44161 8.58403 S
atom 7.13731 0.63410 2.09583 S
atom 7.02822 2.78170 3.94749 C
atom 6.74617 0.22254 4.90940 C
atom 7.21891 1.84776 5.44467 S
atom 6.72201 -0.25225 3.56688 C
atom 7.04363 2.30349 2.65923 C
atom 7.02200 3.22641 1.58000 C
atom 6.88421 4.17116 4.18243 C
atom 7.04214 3.98220 0.68903 N
atom 6.76045 5.31343 4.40079 N
atom 6.33829 -1.59070 3.55726 C
atom 6.12978 -2.45428 2.46500 C
atom 5.92568 -3.20251 1.58975 N
atom 6.41775 -0.62923 5.86264 N
atom 6.09079 -2.12022 5.20267 S
