lattice_vector 7.04038711866 0 0
lattice_vector -0.462843278133 10.3688860719 0
lattice_vector -2.01177034891 -0.415540869032 13.4986811896
atom 5.71062 7.49014 1.62883 S
atom 5.94338 9.62934 -0.22791 C
atom 6.30403 7.06413 -1.15529 C
atom 6.48094 8.75520 -1.66200 S
atom 6.00463 6.57504 0.14713 C
atom 5.66422 9.14852 1.02905 C
atom 5.25477 10.05736 2.03745 C
atom 5.83633 11.02335 -0.46957 C
atom 4.90575 10.79630 2.87299 N
atom 5.77323 12.17077 -0.68328 N
atom 5.96366 5.18309 0.11975 C
atom 5.72559 4.32494 1.21065 C
atom 5.53528 3.62887 2.13159 N
atom 6.47299 6.16933 -2.10650 N
atom 6.27765 4.62856 -1.51188 S
atom 2.77163 2.99411 -1.46945 S
atom 2.53946 0.85495 0.38738 C
atom 2.17859 3.42014 1.31472 C
atom 2.00189 1.72901 1.82144 S
atom 2.47773 3.90926 0.01222 C
atom 2.81849 1.33578 -0.86962 C
atom 3.22810 0.42683 -1.87786 C
atom 2.64663 -0.53906 0.62909 C
atom 3.57723 -0.31202 -2.71343 N
atom 2.70959 -1.68657 0.84233 N
atom 2.51861 5.30121 0.03963 C
atom 2.75640 6.15938 -1.05133 C
atom 2.94828 6.85437 -1.97275 N
atom 2.00968 4.31483 2.26599 N
atom 2.20475 5.85572 1.67137 S
atom 5.04353 2.24942 5.53492 S
atom 5.23424 4.38501 7.40270 C
atom 5.59771 1.82222 8.32614 C
atom 5.85768 3.51135 8.80386 S
atom 5.30522 1.33015 7.02077 C
atom 4.92578 3.89789 6.15544 C
atom 4.47936 4.80410 5.15897 C
atom 5.10800 5.77494 7.65501 C
atom 4.11731 5.54810 4.33312 N
atom 5.03177 6.91969 7.87792 N
atom 5.24659 -0.06067 7.05410 C
atom 4.98361 -0.94302 5.98928 C
atom 4.75758 -1.67972 5.10905 N
atom 5.74040 0.93196 9.28704 N
atom 5.55708 -0.60965 8.68654 S
atom 1.42821 7.81875 8.12385 S
atom 1.23725 5.68267 6.25649 C
atom 0.87327 8.24527 5.33275 C
atom 0.61349 6.55601 4.85530 S
atom 1.16609 8.73771 6.63790 C
atom 1.54583 6.17016 7.50359 C
atom 1.99230 5.26403 8.50012 C
atom 1.36346 4.29270 6.00443 C
atom 2.35401 4.51886 9.32501 N
atom 1.44016 3.14829 5.77990 N
atom 1.22461 10.12854 6.60411 C
atom 1.48789 11.01113 7.66865 C
atom 1.71305 11.74809 8.54878 N
atom 0.73021 9.13522 4.37161 N
atom 0.91368 10.67702 4.97162 S
