lattice_vector 9.51457889227 0 0
lattice_vector 1.67366772761 9.67813470947 0
lattice_vector 0.315029051847 0.0831321743668 11.2176655547
atom 9.17491 7.13497 -0.20273 S
atom 7.14644 6.51135 1.59541 C
atom 9.54651 5.33537 1.93068 C
atom 7.82354 4.89370 1.90178 S
atom 10.09415 6.30294 1.04839 C
atom 7.67174 7.41308 0.71024 C
atom 7.05699 8.65801 0.43862 C
atom 5.95987 6.80819 2.30873 C
atom 6.57191 9.68363 0.15777 N
atom 4.96419 7.03485 2.87696 N
atom 11.45187 6.46559 1.29061 C
atom 12.29794 7.36591 0.61413 C
atom 12.93720 8.13562 0.00774 N
atom 10.37803 4.76148 2.78292 N
atom 11.91739 5.36864 2.56940 S
atom 2.40687 2.40637 11.29818 S
atom 4.42575 2.34706 9.31557 C
atom 2.02747 1.12278 8.76307 C
atom 3.69664 1.22252 8.17745 S
atom 1.51907 1.62830 9.99397 C
atom 3.92770 2.81647 10.50340 C
atom 4.71248 3.72789 11.24917 C
atom 5.71818 2.74651 8.88702 C
atom 5.35294 4.50963 11.83512 N
atom 6.78266 3.04931 8.50795 N
atom 0.16596 1.32680 10.09523 C
atom -0.71009 1.64936 11.14731 C
atom -1.43359 1.93081 12.02260 N
atom 1.18063 0.48922 7.97263 N
atom -0.33100 0.42654 8.68107 S
atom 2.84173 7.31944 5.70058 S
atom 4.95297 7.05299 7.58151 C
atom 2.59140 5.70557 8.05752 C
atom 4.24557 5.86458 8.66739 S
atom 2.03380 6.31141 6.89694 C
atom 4.41293 7.61056 6.45271 C
atom 5.18200 8.54283 5.71803 C
atom 6.27418 7.38424 7.98487 C
atom 5.79702 9.33713 5.12225 N
atom 7.36048 7.61576 8.35247 N
atom 0.70135 5.93479 6.77189 C
atom -0.20343 6.31278 5.76259 C
atom -0.94723 6.64392 4.92229 N
atom 1.79739 4.93410 8.77679 N
atom 0.28034 4.86069 8.08512 S
atom 8.22986 2.37674 5.71314 S
atom 6.19156 1.64551 3.96619 C
atom 8.59607 0.45285 3.68227 C
atom 6.87206 0.02029 3.71484 S
atom 9.14179 1.46261 4.51751 C
atom 6.71311 2.58854 4.80968 C
atom 6.06365 3.82078 5.06386 C
atom 4.98992 1.90075 3.26461 C
atom 5.54218 4.82970 5.34099 N
atom 3.98404 2.09957 2.70485 N
atom 10.50807 1.58224 4.30479 C
atom 11.36557 2.47029 4.98261 C
atom 12.01917 3.22551 5.59132 N
atom 9.43532 -0.18256 2.88342 N
atom 10.98147 0.40881 3.09992 S
