lattice_vector 6.80560300503 0 0
lattice_vector -0.000689264903102 10.148388024 0
lattice_vector -0.568072663465 -0.00118755276927 15.9520335178
atom 1.34876 3.65497 6.54363 S
atom 1.57641 3.70667 9.36893 C
atom 1.50471 1.26186 8.12878 C
atom 1.34759 1.99356 9.73762 S
atom 1.51475 1.93318 6.87196 C
atom 1.56781 4.34738 8.15576 C
atom 1.71372 5.75759 8.10915 C
atom 1.76113 4.46020 10.55769 C
atom 1.80480 6.92122 8.04981 N
atom 1.90766 5.04360 11.56120 N
atom 1.63380 0.99477 5.85252 C
atom 1.68349 1.24632 4.46807 C
atom 1.72768 1.46076 3.31885 N
atom 1.59929 -0.05502 8.11162 N
atom 1.69217 -0.61293 6.54367 S
atom 4.97491 9.76927 9.46324 S
atom 5.06906 9.83777 6.62534 C
atom 5.11324 7.38283 7.84751 C
atom 5.14610 8.11862 6.23300 S
atom 5.01405 8.04453 9.10540 C
atom 4.98797 10.46953 7.84366 C
atom 4.90136 11.88448 7.88217 C
atom 5.07877 10.62580 5.44391 C
atom 4.82825 13.05011 7.93447 N
atom 5.09373 11.24311 4.45044 N
atom 4.95808 7.09554 10.11758 C
atom 4.81801 7.34329 11.49510 C
atom 4.69804 7.56894 12.63702 N
atom 5.14978 6.06626 7.85927 N
atom 5.04411 5.49252 9.42291 S
atom 4.37743 4.69452 14.46299 S
atom 4.28531 4.76194 17.30097 C
atom 4.23978 2.30728 16.07781 C
atom 4.20970 3.04248 17.69273 S
atom 4.33744 2.96966 14.82016 C
atom 4.36480 5.39422 16.08280 C
atom 4.44951 6.80930 16.04429 C
atom 4.27603 5.54953 18.48271 C
atom 4.52012 7.97504 15.99121 N
atom 4.26228 6.16712 19.47601 N
atom 4.39172 2.02123 13.80735 C
atom 4.53074 2.27016 12.42990 C
atom 4.65313 2.49801 11.28869 N
atom 4.20283 0.99075 16.06543 N
atom 4.30613 0.41789 14.50121 S
atom 1.76414 8.72982 1.42760 S
atom 1.53648 8.78129 -1.39786 C
atom 1.61002 6.33660 -0.15754 C
atom 1.76400 7.06803 -1.76673 S
atom 1.60056 7.00779 1.09936 C
atom 1.54552 9.42198 -0.18472 C
atom 1.40033 10.83225 -0.13795 C
atom 1.35120 9.53493 -2.58648 C
atom 1.30919 11.99586 -0.07826 N
atom 1.20448 10.11985 -3.58906 N
atom 1.48384 6.06923 2.11889 C
atom 1.43491 6.32069 3.50339 C
atom 1.39111 6.53501 4.65265 N
atom 1.51710 5.01957 -0.14026 N
atom 1.42639 4.46151 1.42764 S
