lattice_vector 4.07843786808 0.0 0.0
lattice_vector 0.0323016242896 9.94633343425 0.0
lattice_vector 0.27882224915 0.0245987149808 12.3480346301
atom 1.15366 10.47328 5.96385 O
atom 1.15516 9.13160 5.61294 C
atom 0.53927 8.49264 6.23395 H
atom 1.93134 8.98796 4.50427 C
atom 2.62825 8.30466 3.33741 C
atom 1.96461 7.80318 2.62007 H
atom 3.42587 7.60608 3.62405 H
atom 3.14202 9.74562 2.90913 C
atom 2.74914 10.11440 1.95318 H
atom 4.23155 9.86739 2.91740 H
atom 2.41592 10.27607 4.14157 C
atom 1.92601 11.16879 5.04408 C
atom 2.00294 12.23313 5.23404 H
atom 3.55140 5.49213 6.05558 O
atom 3.53539 4.15258 6.41447 C
atom 4.14604 3.50374 5.79850 H
atom 2.75701 4.02424 7.52327 C
atom 2.05305 3.35571 8.69436 C
atom 2.71291 2.85531 9.41608 H
atom 1.25096 2.66036 8.41282 H
atom 1.55085 4.80389 9.11127 C
atom 1.94407 5.17559 10.06595 H
atom 0.46240 4.93496 9.09891 H
atom 2.28459 5.31933 7.87701 C
atom 2.78528 6.20139 6.96991 C
atom 2.71929 7.26515 6.77239 H
atom 1.72796 10.42538 12.33707 O
atom 1.70846 9.09479 11.94919 C
atom 2.32054 8.43215 12.54859 H
atom 0.92110 8.99040 10.84379 C
atom 0.20665 8.34955 9.66299 C
atom 0.85794 7.86323 8.92489 H
atom -0.59658 7.65116 9.93411 H
atom -0.29227 9.80832 9.28097 C
atom 0.10347 10.19996 8.33537 H
atom -1.38046 9.94310 9.29665 H
atom 0.44704 10.29327 10.52326 C
atom 0.95531 11.15453 11.44525 C
atom 0.89052 12.21391 11.66345 H
atom 2.96374 5.39142 -0.31827 O
atom 2.97800 4.06047 0.06830 C
atom 2.36132 3.40144 -0.53035 H
atom 3.76631 3.95159 1.17257 C
atom 4.47974 3.30658 2.35163 C
atom 3.82798 2.82075 3.08970 H
atom 5.28014 2.60593 2.07836 H
atom 4.98381 4.76313 2.73565 C
atom 4.58883 5.15435 3.68175 H
atom 6.07237 4.89462 2.72017 H
atom 4.24596 5.25216 1.49410 C
atom 3.74046 6.11631 0.57341 C
atom 3.81085 7.17521 0.35511 H
