lattice_vector 8.84779229476 0 0
lattice_vector -2.26299163009 10.6795347918 0
lattice_vector -0.0481505289156 -5.0457773297 10.7760517844
atom 0.69736 -1.49215 8.06269 S
atom -1.18835 -0.41125 6.30094 C
atom 1.16221 0.88203 6.58712 C
atom -0.57816 1.24869 6.52462 S
atom 1.67736 -0.27333 7.23858 C
atom -0.69343 -1.50812 6.95491 C
atom -1.24522 -2.79302 6.72486 C
atom -2.24489 -0.54073 5.36779 C
atom -1.68773 -3.85414 6.51645 N
atom -3.13932 -0.63149 4.61910 N
atom 3.06232 -0.29061 7.12994 C
atom 4.00792 -1.19271 7.65263 C
atom 4.84601 -1.87694 8.09537 N
atom 2.02459 1.70464 6.01702 N
atom 3.56878 1.11836 6.23928 S
atom 2.86365 4.82603 8.29335 S
atom 0.91705 3.69817 9.99976 C
atom 3.24831 2.31532 9.60049 C
atom 1.53150 2.03912 9.95915 S
atom 3.78237 3.46287 8.93904 C
atom 1.42577 4.78174 9.33377 C
atom 0.79432 6.04236 9.47485 C
atom -0.22811 3.81942 10.82792 C
atom 0.28754 7.08451 9.62398 N
atom -1.18271 3.84995 11.50356 N
atom 5.15747 3.31640 8.80496 C
atom 6.13598 4.15316 8.23950 C
atom 7.02585 4.76277 7.78797 N
atom 4.08891 1.36077 9.94610 N
atom 5.62900 1.76853 9.46738 S
atom 5.83935 7.12543 2.71324 S
atom 7.72508 6.04436 4.47486 C
atom 5.37443 4.75128 4.18888 C
atom 7.11475 4.38446 4.25123 S
atom 4.85932 5.90667 3.53744 C
atom 7.23022 7.14127 3.82090 C
atom 7.78209 8.42613 4.05104 C
atom 8.78158 6.17386 5.40805 C
atom 8.22474 9.48719 4.25949 N
atom 9.67594 6.26481 6.15680 N
atom 3.47439 5.92410 3.64618 C
atom 2.52887 6.82620 3.12334 C
atom 1.69087 7.51046 2.68046 N
atom 4.51203 3.92876 4.75901 N
atom 2.96786 4.51525 4.53703 S
atom 3.67299 0.80846 2.48301 S
atom 5.61948 1.93619 0.77639 C
atom 3.28813 3.31897 1.17551 C
atom 5.00491 3.59519 0.81668 S
atom 2.75419 2.17145 1.83711 C
atom 5.11085 0.85267 1.44254 C
atom 5.74231 -0.40795 1.30151 C
atom 6.76459 1.81484 -0.05182 C
atom 6.24911 -1.45010 1.15239 N
atom 7.71916 1.78407 -0.72749 N
atom 1.37908 2.31780 1.97117 C
atom 0.40076 1.48084 2.53672 C
atom -0.48874 0.87080 2.98845 N
atom 2.44744 4.27341 0.82982 N
atom 0.90735 3.86549 1.30850 S
