lattice_vector 7.28310930961 0 0
lattice_vector 0.390964554758 11.8578510884 0
lattice_vector 2.94147921526 4.74761413528 11.2698777825
atom 5.27329 14.43054 11.56827 S
atom 6.04905 13.73543 8.93116 C
atom 6.01034 16.39924 9.62657 C
atom 6.66340 15.30018 8.39513 S
atom 5.44351 16.04178 10.87991 C
atom 5.53313 13.39966 10.15832 C
atom 5.18573 12.05422 10.44267 C
atom 6.20285 12.73088 7.94262 C
atom 4.90712 10.96099 10.75394 N
atom 6.36060 11.92410 7.11296 N
atom 5.04332 17.18583 11.55822 C
atom 4.43135 17.21133 12.82709 C
atom 3.94338 17.17005 13.88914 N
atom 6.06123 17.68062 9.33662 N
atom 5.43655 18.59273 10.58621 S
atom 3.13920 13.02161 5.75241 S
atom 4.48817 12.31549 3.36247 C
atom 4.23495 14.98566 3.98832 C
atom 4.64616 13.91637 2.63605 S
atom 3.71155 14.61042 5.25523 C
atom 3.90942 11.96978 4.55715 C
atom 3.82192 10.60593 4.93582 C
atom 4.99677 11.29532 2.51976 C
atom 3.69703 9.49528 5.28196 N
atom 5.38770 10.46158 1.80175 N
atom 3.62708 15.73276 6.07510 C
atom 3.21809 15.73448 7.42243 C
atom 2.90339 15.67039 8.54734 N
atom 4.50275 16.26358 3.80706 N
atom 4.15209 17.14701 5.18090 S
atom 8.05555 9.46676 11.38813 S
atom 9.40324 8.76024 8.99738 C
atom 9.15095 11.43049 9.62303 C
atom 9.56340 10.36097 8.27125 S
atom 8.62788 11.05545 10.89017 C
atom 8.82397 8.41471 10.19197 C
atom 8.73601 7.05078 10.57025 C
atom 9.91085 7.73983 8.15448 C
atom 8.61257 5.93992 10.91635 N
atom 10.30204 6.90628 7.43641 N
atom 8.54440 12.17779 11.71012 C
atom 8.13595 12.17935 13.05754 C
atom 7.82243 12.11548 14.18284 N
atom 9.41881 12.70835 9.44166 N
atom 9.06930 13.59200 10.81556 S
atom 7.24646 6.12919 5.93288 S
atom 8.02499 5.43313 3.29666 C
atom 7.98762 8.09707 3.99191 C
atom 8.63959 6.99756 2.76025 S
atom 7.41940 7.74026 5.24482 C
atom 7.50822 5.09783 4.52364 C
atom 7.16167 3.75229 4.80823 C
atom 8.17943 4.42809 2.30872 C
atom 6.88266 2.65874 5.11801 N
atom 8.33268 3.62006 1.47942 N
atom 7.02026 8.88475 5.92302 C
atom 6.40599 8.91103 7.19077 C
atom 5.91708 8.86848 8.25228 N
atom 8.04039 9.37844 3.70198 N
atom 7.41560 10.29128 4.95106 S
