lattice_vector 4.83344317007 0.0 0.0
lattice_vector -0.0213037199939 9.78859138746 0.0
lattice_vector -0.0973850848705 -0.0707324934066 10.4669135572
atom -0.36218 4.07604 1.53381 O
atom 0.06142 3.25021 0.50233 C
atom -0.44056 3.40251 -0.44530 H
atom 1.06229 2.46339 0.98149 C
atom 2.17813 1.42887 0.98263 C
atom 3.02366 1.66047 0.32249 H
atom 1.86965 0.38868 0.82375 H
atom 2.41554 1.80272 2.50211 C
atom 3.39917 2.24643 2.70229 H
atom 2.22696 0.98053 3.20451 H
atom 1.27382 2.80357 2.34738 C
atom 0.39302 3.79115 2.66372 C
atom 0.16305 4.40719 3.52435 H
atom 4.98582 5.57155 8.09886 O
atom 4.23970 5.86536 6.96538 C
atom 4.47792 5.25785 6.10083 H
atom 3.35602 6.85017 7.28253 C
atom 2.21442 7.85102 7.12701 C
atom 1.23280 7.40819 6.91467 H
atom 2.40810 8.67962 6.43343 H
atom 2.43850 8.21184 8.65164 C
atom 1.58737 7.97257 9.30202 H
atom 2.74390 9.25110 8.82312 H
atom 3.55579 7.17867 8.65315 C
atom 4.55306 6.38807 9.13398 C
atom 5.04883 6.22979 10.08391 H
atom 5.07167 8.96437 2.87096 O
atom 4.30818 8.68913 1.74451 C
atom 4.53255 9.31207 0.88718 H
atom 3.43248 7.69589 2.05788 C
atom 2.29299 6.69265 1.90191 C
atom 1.30676 7.13489 1.71201 H
atom 2.47931 5.87741 1.19065 H
atom 2.54237 6.30586 3.41640 C
atom 1.70085 6.52968 4.08415 H
atom 2.85406 5.26519 3.56492 H
atom 3.65536 7.34323 3.41894 C
atom 4.65846 8.12750 3.89767 C
atom 5.16640 8.27311 4.84319 H
atom -0.44847 0.68846 6.75468 O
atom -0.03235 1.52766 5.73088 C
atom -0.54010 1.38607 4.78444 H
atom 0.97062 2.30956 6.21349 C
atom 2.08571 3.34466 6.21984 C
atom 2.92829 3.11959 5.55382 H
atom 1.77702 4.38630 6.07198 H
atom 2.33091 2.95505 7.73420 C
atom 3.31652 2.51226 7.92633 H
atom 2.14274 3.76941 8.44608 H
atom 1.19082 1.95302 7.57397 C
atom 0.31367 0.95971 7.88319 C
atom 0.08780 0.33388 8.73807 H
