lattice_vector 5.37812703695 0.0 0.0
lattice_vector 0.188440451157 6.90174624186 0.0
lattice_vector 0.810730735424 0.10744888846 13.4620199187
atom 3.58180 8.53279 11.05191 O
atom 2.87807 7.33917 10.93311 C
atom 1.94256 7.40365 10.39195 H
atom 3.58204 6.37521 11.58407 C
atom 3.95250 4.99351 12.10127 C
atom 4.15771 4.25745 11.31410 H
atom 3.26127 4.55887 12.83487 H
atom 5.24740 5.66549 12.72274 C
atom 6.19886 5.29627 12.31981 H
atom 5.27954 5.65461 13.81929 H
atom 4.75547 6.97449 12.12158 C
atom 4.73983 8.29049 11.78228 C
atom 5.38944 9.14936 11.90227 H
atom 2.74980 -1.52360 2.40893 O
atom 3.45353 -0.32999 2.52773 C
atom 4.38903 -0.39446 3.06889 H
atom 2.74956 0.63397 1.87677 C
atom 2.37910 2.01568 1.35958 C
atom 2.17388 2.75173 2.14674 H
atom 3.07033 2.45031 0.62597 H
atom 1.08419 1.34370 0.73810 C
atom 0.13273 1.71291 1.14104 H
atom 1.05205 1.35457 -0.35845 H
atom 1.57612 0.03469 1.33926 C
atom 1.59176 -1.28131 1.67856 C
atom 0.94216 -2.14018 1.55857 H
atom 6.02269 5.06665 9.13994 O
atom 6.66130 3.87494 9.25874 C
atom 7.60056 3.94805 9.79990 H
atom 5.90441 2.90059 8.60778 C
atom 5.45827 1.51062 8.09059 C
atom 5.21321 0.78713 8.87775 H
atom 6.12544 1.06428 7.35698 H
atom 4.19979 2.17268 7.46911 C
atom 3.22834 1.80990 7.87205 H
atom 4.16658 2.14430 6.37256 H
atom 4.76346 3.49129 8.07027 C
atom 4.85111 4.81270 8.40957 C
atom 4.24835 5.66966 8.28958 H
atom 0.30890 1.94253 4.32090 O
atom -0.32970 3.13425 4.20210 C
atom -1.26897 3.06114 3.66094 H
atom 0.42719 4.10860 4.85306 C
atom 0.87333 5.49856 5.37026 C
atom 1.11839 6.22205 4.58309 H
atom 0.20615 5.94491 6.10386 H
atom 2.13181 4.83650 5.99173 C
atom 3.10325 5.19929 5.58880 H
atom 2.16502 4.86488 7.08828 H
atom 1.56814 3.51790 5.39057 C
atom 1.48048 2.19648 5.05127 C
atom 2.08324 1.33953 5.17126 H
