lattice_vector -5.39370201674 0.0 0.0
lattice_vector -0.00476939945839 7.96261569299 0.0
lattice_vector -1.66429991909 0.053805868856 -12.3037701054
atom -3.75747 2.80499 -2.80937 O
atom -5.00268 2.68590 -2.20595 C
atom -5.68450 2.00645 -2.70626 H
atom -5.00713 3.47399 -1.09635 C
atom -5.51752 4.12759 0.18085 C
atom -5.76775 3.44107 1.00031 H
atom -6.34275 4.83796 0.04456 H
atom -4.09021 4.80604 0.30345 C
atom -3.50980 4.48357 1.17989 H
atom -4.08734 5.90251 0.27211 H
atom -3.73344 4.10142 -1.00078 C
atom -2.98639 3.68244 -2.05921 C
atom -1.97984 3.83840 -2.43150 H
atom -3.62836 6.86947 -9.07459 O
atom -2.38350 6.75416 -9.67930 C
atom -1.70192 6.07038 -9.18459 H
atom -2.37870 7.55088 -10.78285 C
atom -1.86797 8.21581 -12.05416 C
atom -1.61833 7.53780 -12.88068 H
atom -1.04198 8.92387 -11.91101 H
atom -3.29490 8.89619 -12.17034 C
atom -3.87555 8.58268 -13.04986 H
atom -3.29722 9.99221 -12.12790 H
atom -3.65204 8.17955 -10.87301 C
atom -4.39901 7.75316 -9.81759 C
atom -5.40522 7.90735 -9.44367 H
atom -5.97643 2.93256 -8.96770 O
atom -4.73085 2.76545 -8.37565 C
atom -4.05123 2.11576 -8.91708 H
atom -4.71751 3.48202 -7.21845 C
atom -4.20045 4.04842 -5.90264 C
atom -3.96918 3.30373 -5.13027 H
atom -3.36163 4.75088 -5.98897 H
atom -5.61817 4.73791 -5.73902 C
atom -6.20096 4.37637 -4.88009 H
atom -5.60633 5.83467 -5.71286 H
atom -5.98562 4.11337 -7.08063 C
atom -6.73899 3.76699 -8.16039 C
atom -7.74289 3.96095 -8.52148 H
atom -1.40905 6.88806 -2.91564 O
atom -2.65488 6.72446 -3.50806 C
atom -3.33385 6.07083 -2.97053 H
atom -2.66904 7.44859 -4.66066 C
atom -3.18707 8.02510 -5.97176 C
atom -3.41859 7.28727 -6.75044 H
atom -4.02639 8.72607 -5.87907 H
atom -1.76972 8.71640 -6.13081 C
atom -1.18740 8.36271 -6.99329 H
atom -1.78212 9.81333 -6.14714 H
atom -1.40107 8.08080 -4.79492 C
atom -0.64711 7.72776 -3.71785 C
atom 0.35649 7.92081 -3.35554 H
