lattice_vector 5.37812703695 0.0 0.0
lattice_vector 0.188440451157 6.90174624186 0.0
lattice_vector 0.810730735424 0.10744888846 13.4620199187
atom 3.62190 8.26732 10.57494 O
atom 2.85936 7.12511 10.79395 C
atom 1.90846 7.09554 10.27714 H
atom 3.56471 6.30654 11.61916 C
atom 3.88037 5.10128 12.49183 C
atom 3.21706 4.98556 13.35794 H
atom 3.96306 4.14144 11.96576 H
atom 5.26415 5.80439 12.81644 C
atom 5.41431 6.06495 13.87167 H
atom 6.14293 5.26764 12.43799 H
atom 4.79636 6.94873 11.92844 C
atom 4.81073 8.14619 11.28571 C
atom 5.46915 9.00418 11.21956 H
atom 2.70970 -1.25813 2.88591 O
atom 3.47223 -0.11593 2.66689 C
atom 4.42313 -0.08636 3.18370 H
atom 2.76688 0.70265 1.84168 C
atom 2.45122 1.90790 0.96901 C
atom 3.11453 2.02362 0.10290 H
atom 2.36853 2.86775 1.49508 H
atom 1.06745 1.20479 0.64440 C
atom 0.91729 0.94424 -0.41083 H
atom 0.18867 1.74155 1.02285 H
atom 1.53524 0.06046 1.53241 C
atom 1.52086 -1.13701 2.17513 C
atom 0.86244 -1.99500 2.24128 H
atom 5.96831 4.80880 9.61692 O
atom 6.66838 3.66310 9.39790 C
atom 7.61789 3.64178 9.91471 H
atom 5.91797 2.83135 8.57269 C
atom 5.53611 1.61216 7.70002 C
atom 6.19272 1.48262 6.83391 H
atom 5.40124 0.66071 8.22609 H
atom 4.19059 2.31009 7.37541 C
atom 4.05420 2.55380 6.32018 H
atom 3.28266 1.77938 7.75386 H
atom 4.72125 3.46860 8.26342 C
atom 4.77255 4.67633 8.90614 C
atom 4.16101 5.53537 8.97229 H
atom 0.36329 2.20039 3.84393 O
atom -0.33678 3.34609 4.06295 C
atom -1.28629 3.36741 3.54613 H
atom 0.41363 4.17784 4.88815 C
atom 0.79549 5.39702 5.76082 C
atom 0.13887 5.52657 6.62693 H
atom 0.93036 6.34847 5.23476 H
atom 2.14101 4.69909 6.08543 C
atom 2.27740 4.45538 7.14066 H
atom 3.04893 5.22980 5.70698 H
atom 1.61034 3.54059 5.19743 C
atom 1.55905 2.33286 4.55470 C
atom 2.17059 1.47381 4.48855 H
