lattice_vector 7.32360510748 0 0
lattice_vector -0.00556235327419 9.97405129409 0
lattice_vector -0.00571462469302 -0.00108296400756 13.8148500633
atom 5.02648 6.35553 2.82618 S
atom 4.00077 7.71006 0.56106 C
atom 3.89779 4.95989 0.58969 C
atom 3.78423 6.33585 -0.52777 S
atom 4.36360 4.98883 1.93579 C
atom 4.49503 7.72078 1.83806 C
atom 4.56055 8.94102 2.55662 C
atom 3.52984 8.91469 -0.02104 C
atom 4.61075 9.92827 3.18262 N
atom 3.10735 9.88529 -0.51701 N
atom 4.30838 3.70757 2.47079 C
atom 4.68393 3.30090 3.76240 C
atom 4.99504 2.96048 4.83626 N
atom 3.52160 3.79279 0.10742 N
atom 3.74222 2.59703 1.24663 S
atom 1.35993 3.62409 10.97520 S
atom 0.33511 2.26986 13.24122 C
atom 0.23091 5.02009 13.21152 C
atom 0.11466 3.64432 14.32888 S
atom 0.69825 4.99119 11.86593 C
atom 0.83031 2.25907 11.96455 C
atom 0.89837 1.03832 11.24710 C
atom -0.13323 1.06465 13.82428 C
atom 0.95144 0.05008 10.62288 N
atom -0.55499 0.09436 14.32149 N
atom 0.64508 6.27275 11.33142 C
atom 1.02304 6.67953 10.04058 C
atom 1.33450 7.01939 8.96665 N
atom -0.14460 6.18742 13.69373 N
atom 0.07830 7.38337 12.55532 S
atom 5.02338 8.60942 9.73316 S
atom 3.99788 7.25325 7.46891 C
atom 3.89114 10.00326 7.49739 C
atom 3.77860 8.62705 6.38012 S
atom 4.35782 9.97507 8.84324 C
atom 4.49301 7.24334 8.74555 C
atom 4.56043 6.02343 9.46449 C
atom 3.52809 6.04807 6.88713 C
atom 4.61195 5.03705 10.09178 N
atom 3.10574 5.07744 6.39111 N
atom 4.30141 11.25631 9.37810 C
atom 4.67754 11.66369 10.66932 C
atom 4.98884 12.00441 11.74303 N
atom 3.51330 11.16986 7.01522 N
atom 3.73324 12.36599 8.15414 S
atom 1.36295 1.36882 4.06893 S
atom 0.33606 2.72205 6.33457 C
atom 0.23534 -0.02826 6.30520 C
atom 0.11792 1.34742 7.42250 S
atom 0.70253 0.00109 4.95960 C
atom 0.83111 2.73332 5.05786 C
atom 0.89767 3.95402 4.34017 C
atom -0.13394 3.92661 6.91756 C
atom 0.94895 4.94179 3.71510 N
atom -0.55592 4.89684 7.41470 N
atom 0.65037 -1.28044 4.42500 C
atom 1.02901 -1.68676 3.13419 C
atom 1.34158 -2.02618 2.06045 N
atom -0.13923 -1.19594 6.78736 N
atom 0.08459 -2.39157 5.64878 S
