lattice_vector 5.37812703695 0.0 0.0
lattice_vector 0.188440451157 6.90174624186 0.0
lattice_vector 0.810730735424 0.10744888846 13.4620199187
atom 3.57890 8.46889 10.95757 O
atom 2.88029 7.27329 10.82897 C
atom 1.94189 7.33922 10.29303 H
atom 3.59195 6.30562 11.46590 C
atom 3.97146 4.92010 11.96606 C
atom 4.17637 4.19374 11.16985 H
atom 3.28585 4.47410 12.69811 H
atom 5.26614 5.59141 12.58872 C
atom 6.21739 5.23122 12.17721 H
atom 5.30361 5.56862 13.68492 H
atom 4.76511 6.90457 12.00439 C
atom 4.74158 8.22414 11.67971 C
atom 5.38767 9.08474 11.80606 H
atom 2.75269 -1.45970 2.50327 O
atom 3.45131 -0.26411 2.63187 C
atom 4.38971 -0.33004 3.16782 H
atom 2.73964 0.70357 1.99494 C
atom 2.36014 2.08909 1.49479 C
atom 2.15523 2.81544 2.29099 H
atom 3.04575 2.53508 0.76273 H
atom 1.06546 1.41778 0.87212 C
atom 0.11421 1.77797 1.28363 H
atom 1.02798 1.44057 -0.22408 H
atom 1.56649 0.10461 1.45645 C
atom 1.59001 -1.21495 1.78114 C
atom 0.94392 -2.07556 1.65478 H
atom 6.02214 5.00426 9.23428 O
atom 6.65553 3.81072 9.36288 C
atom 7.59776 3.88520 9.89883 H
atom 5.89074 2.83287 8.72595 C
atom 5.43536 1.43937 8.22580 C
atom 5.19113 0.72573 9.02200 H
atom 6.09630 0.98169 7.49374 H
atom 4.17707 2.10074 7.60313 C
atom 3.20633 1.74712 8.01464 H
atom 4.13787 2.06045 6.50693 H
atom 4.75006 3.42323 8.18746 C
atom 4.84578 4.74798 8.51215 C
atom 4.24663 5.60657 8.38579 H
atom 0.30945 2.00492 4.22657 O
atom -0.32393 3.19847 4.09796 C
atom -1.26617 3.12398 3.56202 H
atom 0.44085 4.17631 4.73489 C
atom 0.89624 5.56981 5.23505 C
atom 1.14046 6.28346 4.43884 H
atom 0.23530 6.02750 5.96710 H
atom 2.15453 4.90844 5.85771 C
atom 3.12527 5.26206 5.44620 H
atom 2.19373 4.94873 6.95391 H
atom 1.58154 3.58595 5.27338 C
atom 1.48581 2.26120 4.94870 C
atom 2.08496 1.40262 5.07505 H
