lattice_vector 9.48851338547 0 0
lattice_vector -0.011068247144 9.6963341719 0
lattice_vector -0.00784789435645 -0.0135757727154 11.2864553912
atom 4.74510 7.76289 3.27613 S
atom 3.87386 9.75430 1.55481 C
atom 2.56805 9.40201 3.86971 C
atom 2.20615 9.53502 2.13486 S
atom 3.65404 8.62607 4.35377 C
atom 4.93903 9.06967 2.06598 C
atom 6.27864 9.36855 1.72043 C
atom 4.01753 10.70427 0.51446 C
atom 7.40364 9.61800 1.51343 N
atom 4.08523 11.44351 -0.38681 N
atom 3.66967 8.64220 5.74186 C
atom 4.50469 7.91586 6.61092 C
atom 5.17076 7.27781 7.33085 N
atom 1.80535 10.00945 4.76461 N
atom 2.34304 9.62963 6.29768 S
atom 4.71828 2.90491 8.00046 S
atom 5.58554 4.89426 9.72592 C
atom 6.89321 4.54854 7.41153 C
atom 7.25401 4.67749 9.14690 S
atom 5.80877 3.77187 6.92528 C
atom 4.52153 4.20913 9.21282 C
atom 3.18122 4.50588 9.55745 C
atom 5.44001 5.84285 10.76714 C
atom 2.05570 4.75374 9.76346 N
atom 5.37034 6.58158 11.66865 N
atom 5.79351 3.79147 5.53727 C
atom 4.95965 3.06620 4.66639 C
atom 4.29291 2.42881 3.94653 N
atom 7.65496 5.15975 6.51835 N
atom 7.11806 4.78293 4.98417 S
atom 9.16948 7.56069 7.98526 S
atom 9.00568 9.75812 9.68470 C
atom 7.41806 9.71075 7.53229 C
atom 7.29169 10.01864 9.27806 S
atom 8.24224 8.68174 6.99364 C
atom 9.76662 8.74250 9.17949 C
atom 11.12370 8.56112 9.54170 C
atom 9.56498 10.73487 10.54307 C
atom 12.24780 8.36736 9.80677 N
atom 10.02819 11.56041 11.22915 N
atom 8.16520 8.68969 5.60726 C
atom 8.80375 7.84570 4.68290 C
atom 9.31538 7.13992 3.90334 N
atom 6.74106 10.45228 6.67331 N
atom 7.05909 9.94558 5.11935 S
atom 0.29177 2.71817 3.29452 S
atom 0.45629 4.91619 1.59591 C
atom 2.04523 4.86634 3.74754 C
atom 2.17062 5.17520 2.00187 S
atom 1.22043 3.83778 4.28628 C
atom -0.30514 3.90077 2.10085 C
atom -1.66226 3.72051 1.73841 C
atom -0.10230 5.89407 0.73828 C
atom -2.78654 3.52912 1.47241 N
atom -0.56360 6.72128 0.05290 N
atom 1.29925 3.84453 5.67257 C
atom 0.66319 2.99923 6.59748 C
atom 0.15389 2.28979 7.37522 N
atom 2.72387 5.60661 4.60627 N
atom 2.40707 5.09901 6.16029 S
