lattice_vector 7.15099777791 0 0
lattice_vector -0.0335800490598 10.3908666887 0
lattice_vector -0.238630156859 -0.0192042382073 13.1124481744
atom 2.79546 7.31379 2.00711 S
atom 4.66489 9.41911 1.61315 C
atom 5.58866 6.82562 1.57890 C
atom 6.16731 8.50107 1.53167 S
atom 4.25106 6.36389 1.72017 C
atom 3.38054 8.96175 1.78155 C
atom 2.31220 9.89371 1.82971 C
atom 4.86694 10.82032 1.52226 C
atom 1.39269 10.61652 1.85730 N
atom 5.00643 11.97889 1.46069 N
atom 4.22761 4.97455 1.63340 C
atom 3.07565 4.16628 1.66699 C
atom 2.08363 3.54549 1.66722 N
atom 6.52291 5.90922 1.42960 N
atom 5.86327 4.37926 1.41267 S
atom 7.78365 2.10163 4.55809 S
atom 5.90295 4.19898 4.93758 C
atom 4.99006 1.60100 4.97028 C
atom 4.40393 3.27417 5.01033 S
atom 6.33059 1.14527 4.83604 C
atom 7.19031 3.74720 4.77875 C
atom 8.25548 4.68337 4.73731 C
atom 5.69299 5.59948 5.02416 C
atom 9.17217 5.40996 4.71379 N
atom 5.54363 6.75692 5.08295 N
atom 6.36006 -0.24382 4.92456 C
atom 7.51574 -1.04686 4.89421 C
atom 8.51045 -1.66322 4.89703 N
atom 4.05952 0.68040 5.11708 N
atom 4.72635 -0.84647 5.13938 S
atom 4.08270 3.05571 11.10362 S
atom 2.21430 0.94973 11.49919 C
atom 1.28961 3.54272 11.53460 C
atom 0.71217 1.86711 11.58762 S
atom 2.62676 4.00495 11.39126 C
atom 3.49827 1.40749 11.32919 C
atom 4.56682 0.47576 11.28186 C
atom 2.01245 -0.45161 11.58962 C
atom 5.48537 -0.24848 11.25705 N
atom 1.87119 -1.60994 11.65147 N
atom 2.64967 5.39437 11.47688 C
atom 3.80154 6.20283 11.44363 C
atom 4.79351 6.82372 11.44373 N
atom 0.35512 4.45891 11.68370 N
atom 1.01404 5.98912 11.69869 S
atom -0.90376 8.27230 8.55521 S
atom 0.97751 6.17595 8.17371 C
atom 1.88954 8.77427 8.14227 C
atom 2.47606 7.10129 8.10111 S
atom 0.54892 9.22939 8.27732 C
atom -0.31018 6.62699 8.33258 C
atom -1.37515 5.69068 8.37384 C
atom 1.18789 4.77553 8.08615 C
atom -2.29139 4.96349 8.39689 N
atom 1.33250 3.61719 8.03187 N
atom 0.51887 10.61849 8.18940 C
atom -0.63723 11.42090 8.22012 C
atom -1.63250 12.03634 8.21749 N
atom 2.81964 9.69527 7.99545 N
atom 2.15221 11.22191 7.97397 S
