lattice_vector 6.53474 0.0 0.0
lattice_vector -0.793340033733 6.46373839861 0.0
lattice_vector -0.637640629394 -0.137071759419 4.64501119184
atom -2.08633 0.02183 2.28530 C
atom -2.16923 -1.44498 2.57258 C
atom -1.99552 -1.59146 3.62992 H
atom -3.15780 -1.81106 2.31469 H
atom -1.15078 -2.15221 1.80324 N
atom -1.31400 -2.02506 0.81643 H
atom -0.23727 -1.79514 2.03995 H
atom -1.18337 -3.14144 2.01869 H
atom -3.14419 0.65939 2.10172 O
atom -0.95350 0.54461 2.25327 O
atom 1.10314 2.77377 -0.03676 C
atom 1.02025 1.30697 0.25058 C
atom 1.19413 1.16052 1.30789 H
atom 0.03164 0.94090 -0.00715 H
atom 2.03854 0.59970 -0.51894 N
atom 1.87471 0.72633 -1.50572 H
atom 2.95208 0.95718 -0.28292 H
atom 2.00635 -0.38944 -0.30302 H
atom 0.04527 3.41131 -0.22036 O
atom 2.23597 3.29656 -0.06883 O
