lattice_vector 7.46039699121 0 0
lattice_vector 0.0680876678605 10.2658757623 0
lattice_vector 0.00984166135731 0.00249290480612 13.1302067704
atom 1.24422 0.02668 7.11245 S
atom 0.75712 2.15753 8.93621 C
atom 0.42290 -0.42681 9.82979 C
atom 0.21171 1.25705 10.35623 S
atom 0.84286 -0.89956 8.55781 C
atom 1.15694 1.68747 7.70887 C
atom 1.59173 2.60592 6.71911 C
atom 0.74632 3.56264 9.13649 C
atom 1.98631 3.31832 5.87963 N
atom 0.72666 4.72278 9.26057 N
atom 0.90587 -2.29040 8.56932 C
atom 1.36122 -3.07287 7.48936 C
atom 1.79358 -3.62818 6.55489 N
atom 0.18056 -1.34316 10.74754 N
atom 0.43809 -2.87970 10.14858 S
atom 6.21863 10.22926 0.54601 S
atom 6.69941 8.09904 2.37208 C
atom 7.03838 10.68365 3.26334 C
atom 7.25030 8.99985 3.78983 S
atom 6.61800 11.15605 1.99141 C
atom 6.29934 8.56892 1.14470 C
atom 5.86005 7.65081 0.15662 C
atom 6.70725 6.69400 2.57311 C
atom 5.46230 6.93902 -0.68188 N
atom 6.72538 5.53374 2.69629 N
atom 6.55308 12.54679 2.00281 C
atom 6.09647 13.32863 0.92277 C
atom 5.65889 13.88284 -0.00992 N
atom 7.27973 11.60027 4.18110 N
atom 7.02078 13.13652 3.58205 S
atom 5.04366 10.22676 7.11043 S
atom 4.53783 8.10174 8.93598 C
atom 4.22368 10.68970 9.82652 C
atom 3.99897 9.00826 10.35455 S
atom 4.64851 11.15803 8.55452 C
atom 4.94293 8.56711 7.70863 C
atom 5.37216 7.64427 6.72052 C
atom 4.51242 6.69705 9.13819 C
atom 5.76300 6.92839 5.88227 N
atom 4.47687 5.53767 9.26586 N
atom 4.72231 12.54833 8.56486 C
atom 5.18217 13.32684 7.48403 C
atom 5.61748 13.87911 6.54915 N
atom 3.98740 11.60873 10.74320 N
atom 4.25814 13.14266 10.14344 S
atom 2.42053 0.03045 0.54404 S
atom 2.92174 2.15528 2.37070 C
atom 3.23657 -0.43281 3.26101 C
atom 3.46540 1.24868 3.78746 S
atom 2.81114 -0.90093 1.98913 C
atom 2.51646 1.68988 1.14345 C
atom 2.08352 2.61225 0.15651 C
atom 2.94425 3.55992 2.57373 C
atom 1.69049 3.32754 -0.68122 N
atom 2.97785 4.71945 2.70055 N
atom 2.73337 -2.29108 2.00051 C
atom 2.27063 -3.06920 0.92054 C
atom 1.83099 -3.62126 -0.01243 N
atom 3.46999 -1.35172 4.17858 N
atom 3.19600 -2.88540 3.57959 S
