lattice_vector -5.45484300946 0.0 0.0
lattice_vector -0.00461301942987 8.62483348366 0.0
lattice_vector -0.00100211148527 0.00929659541262 -10.3663652842
atom 0.29494 9.04487 -8.25563 O
atom -0.56907 9.20773 -9.33008 C
atom -0.35093 10.05442 -9.97153 H
atom -1.49692 8.21275 -9.27460 C
atom -2.69976 7.36279 -9.66747 C
atom -2.61400 6.82761 -10.62242 H
atom -3.66515 7.88281 -9.63767 H
atom -2.38532 6.47613 -8.39165 C
atom -2.11537 5.43267 -8.59902 H
atom -3.17323 6.48513 -7.62824 H
atom -1.20818 7.40960 -8.13488 C
atom -0.10928 7.93439 -7.52743 C
atom 0.49003 7.72138 -6.65147 H
atom -5.77136 4.72695 -2.11960 O
atom -4.90752 4.88788 -1.04516 C
atom -5.12657 5.73342 -0.40370 H
atom -3.97861 3.89301 -1.10064 C
atom -2.77486 3.04234 -0.70776 C
atom -2.86004 2.50545 0.24719 H
atom -1.81002 3.56241 -0.73756 H
atom -3.08835 2.15796 -1.98358 C
atom -3.35718 1.11413 -1.77622 H
atom -2.30046 2.16834 -2.74700 H
atom -4.26649 3.09190 -2.24036 C
atom -5.36595 3.61778 -2.84781 C
atom -5.96503 3.40634 -3.72377 H
atom 0.29733 4.73160 -7.30279 O
atom -0.56646 4.89253 -6.22834 C
atom -0.34820 5.73807 -5.58689 H
atom -1.49432 3.89765 -6.28382 C
atom -2.69709 3.04698 -5.89094 C
atom -2.61115 2.51009 -4.93600 H
atom -3.66249 3.56706 -5.92075 H
atom -2.38290 2.16261 -7.16677 C
atom -2.11291 1.11878 -6.95940 H
atom -3.17095 2.17298 -7.93018 H
atom -1.20580 3.09655 -7.42354 C
atom -0.10702 3.62242 -8.03099 C
atom 0.49212 3.41099 -8.90695 H
atom -5.77375 9.04023 -3.07245 O
atom -4.91013 9.20308 -4.14690 C
atom -5.12930 10.04977 -4.78835 H
atom -3.98121 8.20811 -4.09142 C
atom -2.77753 7.35814 -4.48429 C
atom -2.86290 6.82296 -5.43924 H
atom -1.81269 7.87816 -4.45449 H
atom -3.09077 6.47148 -3.20847 C
atom -3.35965 5.42802 -3.41583 H
atom -2.30273 6.48048 -2.44506 H
atom -4.26887 7.40496 -2.95170 C
atom -5.36821 7.92974 -2.34424 C
atom -5.96712 7.71673 -1.46829 H
