lattice_vector 4.946704 0.0 0.0
lattice_vector 3.39030913714e-16 4.946704 0.0
lattice_vector 3.25416086622e-16 -1.34965075484e-06 5.314448
atom 1.89493 -0.00870 1.78607 C
atom 2.34818 0.45279 0.44043 C
atom 1.55637 0.28869 -0.28470 H
atom 2.58533 1.50430 0.51464 H
atom 3.53869 -0.28385 0.03707 N
atom 4.28482 -0.15408 0.70998 H
atom 3.30807 -1.26855 -0.02782 H
atom 3.82030 0.03543 -0.87889 H
atom 0.74957 -0.49146 1.89031 O
atom 2.69926 0.15619 2.72618 O
atom 0.57842 2.77711 4.44328 C
atom 0.12518 2.31563 3.09764 C
atom 0.91699 2.47976 2.37250 H
atom -0.11194 1.26411 3.17183 H
atom -1.06535 3.05225 2.69429 N
atom -1.81147 2.92244 3.36720 H
atom -0.83476 4.03696 2.62943 H
atom -1.34695 2.73299 1.77833 H
atom 1.72379 3.25985 4.54753 O
atom -0.22591 2.61222 5.38339 O
