lattice_vector 9.31151812724 0 0
lattice_vector -0.0103776715922 10.2419651424 0
lattice_vector -0.633992101418 -0.00320814891549 10.9434172126
atom 4.21608 2.41933 7.31766 S
atom 3.02424 2.50838 4.78063 C
atom 3.44845 4.88549 6.09246 C
atom 2.35291 4.14826 4.90069 S
atom 4.23101 4.15627 7.02896 C
atom 3.74486 1.82121 5.71775 C
atom 4.22055 0.50863 5.45641 C
atom 2.74606 1.93686 3.51818 C
atom 4.63028 -0.57308 5.28104 N
atom 2.48665 1.52617 2.45563 N
atom 4.96741 5.03944 7.80959 C
atom 5.93863 4.68435 8.76380 C
atom 6.77898 4.35656 9.50857 N
atom 3.52454 6.20276 6.13104 N
atom 4.55568 6.67700 7.35128 S
atom 4.00529 9.34924 1.32058 S
atom 6.05238 9.19965 -0.63958 C
atom 5.21041 6.85536 0.55281 C
atom 6.44549 7.47947 -0.56416 S
atom 4.22590 7.60799 1.25006 C
atom 5.16322 9.91632 0.11992 C
atom 5.12116 11.32792 -0.01226 C
atom 6.83856 9.86401 -1.61741 C
atom 5.07265 12.49408 -0.08910 N
atom 7.50880 10.36280 -2.43787 N
atom 3.42673 6.75087 1.99575 C
atom 2.33067 7.09853 2.80640 C
atom 1.41407 7.38324 3.47534 N
atom 5.21817 5.55237 0.74468 N
atom 3.98694 5.11104 1.77296 S
atom 8.86113 7.82383 7.32019 S
atom 7.67307 7.73459 4.78162 C
atom 8.10147 5.35722 6.09174 C
atom 7.00402 6.09356 4.90111 S
atom 8.88225 6.08737 7.02896 C
atom 8.39138 8.42253 5.71994 C
atom 8.86557 9.73600 5.46026 C
atom 7.39560 8.30603 3.51892 C
atom 9.27409 10.81843 5.28643 N
atom 7.13715 8.71582 2.45578 N
atom 9.62153 5.20526 7.80797 C
atom 10.59237 5.56093 8.76227 C
atom 11.43179 5.88929 9.50783 N
atom 8.18125 4.04017 6.12844 N
atom 9.21420 3.56718 7.34763 S
atom -0.64402 0.89816 1.32175 S
atom 1.40344 1.04867 -0.63809 C
atom 0.55832 3.39291 0.55261 C
atom 1.79464 2.76960 -0.56343 S
atom -0.42592 2.63963 1.24953 C
atom 0.51529 0.33158 0.12215 C
atom 0.47616 -1.08028 -0.00803 C
atom 2.19060 0.38478 -1.61534 C
atom 0.43354 -2.24674 -0.08355 N
atom 2.86322 -0.11304 -2.43442 N
atom -1.22661 3.49644 1.99395 C
atom -2.32324 3.14804 2.80345 C
atom -3.24055 2.86340 3.47142 N
atom 0.56474 4.69597 0.74402 N
atom -0.66790 5.13663 1.77093 S
