lattice_vector 4.66597970534 0.0 0.0
lattice_vector -0.0190721991853 -9.18020598926 0.0
lattice_vector -0.0438664772278 0.00388426968756 -12.0892954989
atom 1.04808 -7.97901 -6.10799 O
atom 1.04959 -9.32069 -6.45891 C
atom 0.43369 -9.95965 -5.83789 H
atom 1.82576 -9.46432 -7.56757 C
atom 2.52267 -10.14763 -8.73444 C
atom 1.85904 -10.64911 -9.45177 H
atom 3.32030 -10.84621 -8.44779 H
atom 3.03644 -8.70667 -9.16271 C
atom 2.64356 -8.33789 -10.11866 H
atom 4.12598 -8.58489 -9.15444 H
atom 2.31034 -8.17622 -7.93027 C
atom 1.82043 -7.28350 -7.02776 C
atom 1.89736 -6.21916 -6.83780 H
atom 3.55367 -3.38895 -5.97604 O
atom 3.54659 -4.73085 -5.62512 C
atom 4.15984 -5.36941 -6.24614 H
atom 2.76981 -4.87520 -4.51646 C
atom 2.07006 -5.55926 -3.34959 C
atom 2.73162 -6.06120 -2.63226 H
atom 1.26954 -6.25765 -3.63624 H
atom 1.56229 -4.11858 -2.92132 C
atom 1.95669 -3.75040 -1.96537 H
atom 0.47326 -3.99679 -2.92959 H
atom 2.29059 -3.58733 -4.15376 C
atom 2.78421 -2.69403 -5.05627 C
atom 2.71170 -1.62957 -5.24623 H
atom 3.36915 -3.38701 -12.02069 O
atom 3.37320 -4.72891 -11.66977 C
atom 2.75280 -5.36747 -12.29079 H
atom 4.15743 -4.87326 -10.56111 C
atom 4.86281 -5.55732 -9.39424 C
atom 4.20437 -6.05926 -8.67691 H
atom 5.65835 -6.25571 -9.68089 H
atom 5.37968 -4.11663 -8.96597 C
atom 4.99374 -3.74846 -8.01002 H
atom 6.46916 -3.99485 -8.97424 H
atom 4.64464 -3.58538 -10.19841 C
atom 4.14818 -2.69209 -11.10092 C
atom 4.22373 -1.62762 -11.29088 H
atom 1.23260 -7.98095 -0.06335 O
atom 1.22297 -9.32263 -0.41426 C
atom 1.84072 -9.96159 0.20675 H
atom 0.43815 -9.46627 -1.52293 C
atom -0.27007 -10.14957 -2.68979 C
atom 0.38628 -10.65105 -3.40713 H
atom -1.06851 -10.84815 -2.40314 H
atom -0.78095 -8.70862 -3.11806 C
atom -0.39348 -8.33983 -4.07401 H
atom -1.86992 -8.58684 -3.10979 H
atom -0.04371 -8.17816 -1.88562 C
atom 0.45646 -7.28544 -0.98311 C
atom 0.38533 -6.22110 -0.79315 H
