lattice_vector 5.49005851063 0.0 0.0
lattice_vector 0.00217313102257 8.32534930386 0.0
lattice_vector 0.0413154023507 0.0156402508666 10.5717247714
atom 6.32485 8.54577 1.93060 O
atom 5.53153 8.63216 0.79454 C
atom 5.77820 9.44633 0.12207 H
atom 4.61804 7.62373 0.84520 C
atom 3.45762 6.72996 0.42304 C
atom 3.61506 6.14475 -0.49262 H
atom 2.48420 7.23178 0.36038 H
atom 3.70085 5.92131 1.76456 C
atom 4.00057 4.87351 1.63434 H
atom 2.86400 5.95690 2.47315 H
atom 4.84332 6.89045 2.04474 C
atom 5.89100 7.46938 2.69219 C
atom 6.43421 7.31679 3.61603 H
atom -0.80344 4.39301 8.63208 O
atom -0.01007 4.48277 9.76814 C
atom -0.25631 5.29892 10.44061 H
atom 0.90290 3.47419 9.71748 C
atom 2.06285 2.58166 10.13964 C
atom 1.90510 1.99916 11.05530 H
atom 3.03653 3.08366 10.20230 H
atom 1.81920 1.76904 8.79812 C
atom 1.51892 0.72162 8.92834 H
atom 2.65606 1.80254 8.08953 H
atom 0.67723 2.73735 8.51793 C
atom -0.37014 3.31437 7.87049 C
atom -0.91343 3.15904 6.94664 H
atom 6.32930 4.38519 3.34622 O
atom 5.54485 4.47495 4.48228 C
atom 5.79678 5.29110 5.15475 H
atom 4.63097 3.46637 4.43162 C
atom 3.47385 2.57384 4.85378 C
atom 3.63844 1.99134 5.76944 H
atom 2.50092 3.07584 4.91643 H
atom 3.70659 1.76122 3.51226 C
atom 4.00733 0.71380 3.64247 H
atom 2.86421 1.79472 2.80367 H
atom 4.84688 2.72953 3.23207 C
atom 5.88949 3.30655 2.58462 C
atom 6.42548 3.15122 1.66078 H
atom -0.80788 8.55359 7.21646 O
atom -0.02339 8.63998 6.08040 C
atom -0.27490 9.45415 5.40793 H
atom 0.88997 7.63155 6.13106 C
atom 2.04662 6.73778 5.70890 C
atom 1.88172 6.15257 4.79324 H
atom 3.01981 7.23960 5.64624 H
atom 1.81345 5.92913 7.05042 C
atom 1.51216 4.88133 6.92020 H
atom 2.65586 5.96472 7.75901 H
atom 0.67367 6.89827 7.33061 C
atom -0.36864 7.47720 7.97805 C
atom -0.90471 7.32461 8.90190 H
