lattice_vector 5.39370201674 0 0
lattice_vector -0.00476939945839 7.96261569299 0
lattice_vector -0.373085055458 -0.0550262094035 12.410210625
atom 1.75641 2.80021 9.49102 O
atom 0.51120 2.68113 10.09443 C
atom -0.17062 2.00168 9.59413 H
atom 0.50675 3.46921 11.20404 C
atom -0.00363 4.12281 12.48123 C
atom -0.25387 3.43629 13.30070 H
atom -0.82886 4.83318 12.34495 H
atom 1.42368 4.80127 12.60384 C
atom 2.00409 4.47880 13.48028 H
atom 1.42655 5.89774 12.57250 H
atom 1.78044 4.09664 11.29961 C
atom 2.52749 3.67766 10.24118 C
atom 3.53405 3.83362 9.86889 H
atom 3.25853 6.81788 2.91460 O
atom 4.50338 6.70257 2.30990 C
atom 5.18497 6.01879 2.80460 H
atom 4.50819 7.49929 1.20634 C
atom 5.01891 8.16422 -0.06497 C
atom 5.26856 7.48621 -0.89149 H
atom 5.84490 8.87228 0.07818 H
atom 3.59199 8.84460 -0.18115 C
atom 3.01133 8.53109 -1.06067 H
atom 3.58966 9.94062 -0.13871 H
atom 3.23485 8.12796 1.11618 C
atom 2.48788 7.70157 2.17160 C
atom 1.48167 7.85576 2.54553 H
atom 0.36223 2.90116 3.28391 O
atom 1.60781 2.73406 3.87596 C
atom 2.28743 2.08437 3.33454 H
atom 1.62115 3.45063 5.03316 C
atom 2.13821 4.01702 6.34897 C
atom 2.36948 3.27234 7.12134 H
atom 2.97702 4.71948 6.26264 H
atom 0.72049 4.70652 6.51259 C
atom 0.13769 4.34497 7.37152 H
atom 0.73233 5.80328 6.53875 H
atom 0.35304 4.08198 5.17098 C
atom -0.40033 3.73559 4.09122 C
atom -1.40423 3.92956 3.73013 H
atom 4.65314 6.86309 9.12319 O
atom 3.40730 6.69949 8.53076 C
atom 2.72834 6.04585 9.06829 H
atom 3.39315 7.42362 7.37816 C
atom 2.87512 8.00012 6.06706 C
atom 2.64360 7.26230 5.28838 H
atom 2.03580 8.70110 6.15975 H
atom 4.29247 8.69143 5.90802 C
atom 4.87479 8.33774 5.04553 H
atom 4.28007 9.78835 5.89168 H
atom 4.66111 8.05582 7.24390 C
atom 5.41507 7.70279 8.32098 C
atom 6.41868 7.89584 8.68328 H
