lattice_vector 5.49005851063 0.0 0.0
lattice_vector 0.00217313102257 8.32534930386 0.0
lattice_vector 0.0413154023507 0.0156402508666 10.5717247714
atom 5.78252 1.18143 1.67658 O
atom 4.93129 1.27742 0.58404 C
atom 5.12759 2.11185 -0.08012 H
atom 4.04157 0.24923 0.65603 C
atom 2.87914 -0.65862 0.27105 C
atom 3.00164 -1.21914 -0.66517 H
atom 1.89411 -0.17593 0.26927 H
atom 3.20570 -1.49274 1.57886 C
atom 3.51905 -2.53077 1.40861 H
atom 2.40517 -1.49098 2.32907 H
atom 4.34155 -0.50667 1.82480 C
atom 5.40897 0.07894 2.43278 C
atom 6.00105 -0.08354 3.32435 H
atom -0.26278 5.35477 8.88609 O
atom 0.58851 5.45399 9.97864 C
atom 0.39264 6.29039 10.64280 H
atom 1.47769 4.42559 9.90665 C
atom 2.63964 3.51888 10.29163 C
atom 2.51686 2.96113 11.22785 H
atom 3.62493 4.00157 10.29341 H
atom 2.31265 2.68089 8.98382 C
atom 1.99875 1.64337 9.15407 H
atom 3.11318 2.68043 8.23361 H
atom 1.17731 3.66624 8.73788 C
atom 0.11019 4.25005 8.12990 C
atom -0.48197 4.08492 7.23833 H
atom 5.79112 5.34695 3.60023 O
atom 4.94843 5.44617 4.69278 C
atom 5.14993 6.28257 5.35694 H
atom 4.05815 4.41777 4.62079 C
atom 2.89873 3.51106 5.00577 C
atom 3.02854 2.95331 5.94199 H
atom 1.91371 3.99375 5.00755 H
atom 3.21507 2.67307 3.69796 C
atom 3.52975 1.63555 3.86821 H
atom 2.40867 2.67261 2.94775 H
atom 4.34900 3.65842 3.45202 C
atom 5.41167 4.24223 2.84404 C
atom 5.99677 4.07710 1.95247 H
atom -0.27138 1.18925 6.96245 O
atom 0.57136 1.28524 5.86990 C
atom 0.37030 2.11967 5.20574 H
atom 1.46111 0.25705 5.94189 C
atom 2.62005 -0.65080 5.55691 C
atom 2.48995 -1.21132 4.62069 H
atom 3.60532 -0.16811 5.55513 H
atom 2.30328 -1.48492 6.86472 C
atom 1.98805 -2.52295 6.69447 H
atom 3.10967 -1.48316 7.61493 H
atom 1.16987 -0.49885 7.11066 C
atom 0.10750 0.08676 7.71864 C
atom -0.47769 -0.07572 8.61021 H
