lattice_vector 6.14883756651 0.0 0.0
lattice_vector -1.43363667704 6.99176122875 0.0
lattice_vector -0.00737859780845 -1.6162333539 11.8658893167
atom 5.92152 1.33498 6.30307 O
atom 5.35287 0.74753 7.42153 C
atom 6.06112 0.43376 8.17791 H
atom 4.00376 0.72017 7.24403 C
atom 2.52986 0.50076 7.55952 C
atom 2.20979 -0.54558 7.65014 H
atom 2.15009 1.07606 8.41485 H
atom 2.21189 1.15436 6.15668 C
atom 1.71841 0.47946 5.44649 H
atom 1.64760 2.09416 6.21895 H
atom 3.72136 1.31195 5.97875 C
atom 4.90882 1.68339 5.42362 C
atom 5.25041 2.17737 4.52227 H
atom -0.57244 3.90555 6.84277 O
atom 0.77548 4.11578 6.61017 C
atom 1.42832 3.79932 7.41371 H
atom 0.90596 4.71028 5.39244 C
atom 1.57344 5.38965 4.20461 C
atom 2.24179 4.76027 3.60291 H
atom 2.07413 6.33827 4.44438 H
atom 0.12929 5.55532 3.58634 C
atom -0.01539 4.99465 2.65515 H
atom -0.18885 6.59515 3.44329 H
atom -0.39989 4.87599 4.84845 C
atom -1.28869 4.38197 5.75608 C
atom -2.36247 4.27441 5.84644 H
atom 2.84926 2.12714 0.36352 O
atom 2.28212 1.53080 1.47809 C
atom 2.99178 1.20606 2.22856 H
atom 0.93226 1.51062 1.30519 C
atom -0.54154 1.29507 1.62429 C
atom -0.86646 0.24963 1.70683 H
atom -0.91499 1.86440 2.48629 H
atom -0.86177 1.96293 0.22855 C
atom -1.35998 1.29610 -0.48592 H
atom -1.42287 2.90394 0.30071 H
atom 0.64775 2.11637 0.04684 C
atom 1.83464 2.48871 -0.50874 C
atom 2.17473 2.99061 -1.40627 H
atom 2.49422 3.08252 12.76459 O
atom 3.84258 3.29596 12.53686 C
atom 4.49424 2.96819 13.33691 H
atom 3.97477 3.90832 11.32821 C
atom 4.64374 4.60649 10.15201 C
atom 5.31363 3.98722 9.54154 H
atom 5.14321 5.55153 10.40753 H
atom 3.20070 4.78022 9.53362 C
atom 3.05924 4.23254 8.59432 H
atom 2.88173 5.82147 9.40411 H
atom 2.66955 4.08223 10.78485 C
atom 1.77951 3.57531 11.68420 C
atom 0.70553 3.46704 11.77148 H
