lattice_vector 5.39080037169 0.0 0.0
lattice_vector -1.77779299983 8.4568476759 0.0
lattice_vector -0.00147880879239 -0.0279602072573 13.8565803426
atom 2.28678 2.73879 6.56589 O
atom 3.04630 1.97999 5.68667 C
atom 4.00420 1.65616 6.07746 H
atom 2.34352 1.84480 4.52951 C
atom 2.02527 1.45412 3.08930 C
atom 1.91933 0.37693 2.90641 H
atom 2.69444 1.88851 2.33400 H
atom 0.64879 2.21952 3.27766 C
atom -0.23911 1.58002 3.19874 H
atom 0.50804 3.09311 2.62829 H
atom 1.10911 2.53475 4.69245 C
atom 1.09210 3.07376 5.94112 C
atom 0.42398 3.69454 6.52567 H
atom 3.98065 2.04639 13.49207 O
atom 3.22246 2.80767 12.61344 C
atom 2.26332 3.12897 13.00321 H
atom 3.92836 2.94825 11.45886 C
atom 4.24862 3.34158 10.01971 C
atom 4.35372 4.41888 9.83788 H
atom 3.58087 2.90713 9.26326 H
atom 5.62565 2.57750 10.20915 C
atom 6.51269 3.21849 10.13288 H
atom 5.76892 1.70544 9.55842 H
atom 5.16295 2.25886 11.62241 C
atom 5.17698 1.71460 12.86887 C
atom 5.84457 1.09264 13.45282 H
atom -0.52504 6.91476 7.32374 O
atom -1.28455 7.67354 8.20297 C
atom -2.24244 7.99739 7.81216 H
atom -0.58177 7.80876 9.36012 C
atom -0.26351 8.19941 10.80033 C
atom -0.15757 9.27660 10.98324 H
atom -0.93268 7.76501 11.55563 H
atom 1.11296 7.43402 10.61196 C
atom 2.00087 8.07351 10.69089 H
atom 1.25371 6.56042 11.26132 H
atom 0.65264 7.11880 9.19717 C
atom 0.66965 6.57977 7.94851 C
atom 1.33777 5.95899 7.36397 H
atom 3.17187 7.60706 0.39754 O
atom 3.93009 6.84586 1.27620 C
atom 4.88925 6.52459 0.88644 H
atom 3.22420 6.70529 2.43078 C
atom 2.90393 6.31196 3.86993 C
atom 2.79883 5.23466 4.05176 H
atom 3.57169 6.74641 4.62638 H
atom 1.52690 7.07605 3.68050 C
atom 0.63987 6.43505 3.75675 H
atom 1.38363 7.94810 4.33123 H
atom 1.98961 7.39468 2.26723 C
atom 1.97557 7.93894 1.02077 C
atom 1.30800 8.56092 0.43683 H
