lattice_vector      5.6571188447      0.0000000000      0.0000000000
lattice_vector      0.0000000000      5.2123199928      0.0000000000
lattice_vector     -1.6660148579      0.0000000000      5.2566047817
atom     -0.6963127933      0.8293883111      2.9236406791 C
atom     -1.4815189206      0.1973452796      1.8110885988 C
atom     -2.5396334524      0.3731421284      1.9739835407 H
atom     -1.1618820980      0.6363609528      0.8755200199 H
atom     -1.2278691007     -1.2400819358      1.7721571706 N
atom     -0.2332215623     -1.4165470720      1.8247388057 H
atom     -1.6800384665     -1.6939601764      2.5563740364 H
atom     -1.5843245653     -1.6355015604      0.9114922758 H
atom     -1.1390168114      1.8588654489      3.4725834391 O
atom      0.3919974957      0.3127796817      3.2370177429 O
atom      2.3982159140      3.9754885601     -0.1969712843 C
atom      2.8584549017      2.9577277335      0.8060950952 C
atom      2.7486768739      3.3643683363      1.8059140095 H
atom      2.2565143717      2.0665869640      0.6889338701 H
atom      4.2590346212      2.6189881053      0.5701230620 N
atom      4.4081771783      2.4328631105     -0.4129041412 H
atom      4.8544061933      3.3893071221      0.8486908075 H
atom      4.5144837918      1.7957960861      1.1004643293 H
atom      1.4923593875      4.7739195994      0.1177984845 O
atom      2.9234633488      3.9622093461     -1.3254427017 O
