lattice_vector 9.80514664306 0 0
lattice_vector -0.00425199430825 10.1258855728 0
lattice_vector -0.0111607880797 -0.00130815837394 10.3818246714
atom 6.49283 1.69105 9.99947 S
atom 8.49701 3.56186 9.46076 C
atom 6.09484 3.85963 8.22094 C
atom 7.83097 4.06187 7.89937 S
atom 5.55741 2.88643 9.10924 C
atom 7.94989 2.65537 10.32672 C
atom 8.54477 2.39610 11.58525 C
atom 9.74633 4.15597 9.76937 C
atom 8.99166 2.17813 12.64466 N
atom 10.80581 4.59365 9.99312 N
atom 4.16958 2.94617 9.10118 C
atom 3.28914 2.11068 9.81336 C
atom 2.58825 1.37968 10.39828 N
atom 5.22826 4.61715 7.56840 N
atom 3.66939 4.18664 7.97675 S
atom 3.29803 6.75656 0.38310 S
atom 1.29236 8.62520 0.92317 C
atom 3.69435 8.92380 2.16353 C
atom 1.95791 9.12389 2.48524 S
atom 4.23250 7.95216 1.27388 C
atom 1.84012 7.71978 0.05654 C
atom 1.24532 7.46116 -1.20216 C
atom 0.04318 9.21956 0.61456 C
atom 0.79737 7.24392 -2.26125 N
atom -1.01612 9.65769 0.39077 N
atom 5.62029 8.01336 1.28174 C
atom 6.50122 7.17945 0.56821 C
atom 7.20270 6.44989 -0.01784 N
atom 4.56023 9.68128 2.81695 N
atom 6.11960 9.25275 2.40755 S
atom 3.30382 1.69294 4.83057 S
atom 1.29281 3.55124 4.27341 C
atom 3.69520 3.84696 3.03235 C
atom 1.95888 4.04190 2.70918 S
atom 4.23538 2.88301 3.92897 C
atom 1.84088 2.65185 5.14613 C
atom 1.24105 2.39531 6.40293 C
atom 0.04261 4.14637 4.57650 C
atom 0.78717 2.17880 7.45963 N
atom -1.01514 4.59020 4.79626 N
atom 5.62309 2.94378 3.91726 C
atom 6.50536 2.11380 4.63373 C
atom 7.20715 1.38749 5.22344 N
atom 4.55957 4.59940 2.37105 N
atom 6.11999 4.17406 2.78013 S
atom 6.48501 6.75487 5.55170 S
atom 8.49518 8.61437 6.10774 C
atom 6.09274 8.90953 7.34881 C
atom 7.82896 9.10513 7.67208 S
atom 5.55298 7.94470 6.45290 C
atom 7.94732 7.71453 5.23537 C
atom 8.54678 7.45790 3.97838 C
atom 9.74504 9.21011 5.80462 C
atom 9.00222 7.24038 2.92257 N
atom 10.80393 9.65164 5.58567 N
atom 4.16520 8.00495 6.46466 C
atom 3.28304 7.17416 5.74904 C
atom 2.58105 6.44612 5.16174 N
atom 5.22799 9.66220 8.00941 N
atom 3.66790 9.23589 7.60070 S
