lattice_vector 7.45851271555 0.0 0.0
lattice_vector 0.0364785987959 7.65520591262 0.0
lattice_vector 0.0152110780743 3.11787600321 8.60284581052
atom 1.59612 2.94070 1.50501 O
atom 0.26653 2.57163 1.64939 C
atom 0.06478 1.90221 2.47522 H
atom -0.44784 3.17559 0.66232 C
atom -1.65260 3.59631 -0.16418 C
atom -2.38055 4.20906 0.38381 H
atom -2.16531 2.78139 -0.68978 H
atom -0.64362 4.43392 -1.05670 C
atom -0.83263 5.51556 -1.04965 H
atom -0.55197 4.08941 -2.09464 H
atom 0.45677 3.94262 -0.12445 C
atom 1.69829 3.78949 0.41151 C
atom 2.69381 4.17801 0.23679 H
atom 2.19622 8.32253 5.81946 O
atom 3.52802 7.96044 5.96143 C
atom 3.73508 7.29725 6.79041 H
atom 4.23717 8.56583 4.97162 C
atom 5.43715 8.98449 4.13752 C
atom 6.16845 9.59941 4.67863 H
atom 5.94601 8.16731 3.61202 H
atom 4.42279 9.81713 3.24642 C
atom 4.60936 10.89908 3.24881 H
atom 4.32755 9.46880 2.21025 H
atom 3.32690 9.32670 4.18500 C
atom 2.08731 9.16765 4.72364 C
atom 1.08895 9.54878 4.54969 H
atom 5.32876 6.75969 1.53313 O
atom 3.99472 6.40134 1.66420 C
atom 3.77846 5.73691 2.49000 H
atom 3.29581 7.00796 0.66805 C
atom 2.10350 7.43029 -0.17542 C
atom 1.37104 8.04901 0.35970 H
atom 1.59531 6.61471 -0.70387 H
atom 3.12758 8.25927 -1.05878 C
atom 2.94439 9.34184 -1.05764 H
atom 3.22961 7.91104 -2.09443 H
atom 4.21436 7.76584 -0.11143 C
atom 5.44904 7.60405 0.43812 C
atom 6.44976 7.98309 0.27239 H
atom 5.91946 4.48903 5.81685 O
atom 7.25205 4.12798 5.95464 C
atom 7.46116 3.45736 6.77736 H
atom 7.95914 4.74142 4.96838 C
atom 9.15756 5.16578 4.13485 C
atom 9.88720 5.78111 4.67745 H
atom 9.66808 4.35177 3.60620 H
atom 8.14030 6.00040 3.24859 C
atom 8.32632 7.08237 3.25305 H
atom 8.04279 5.65507 2.21154 H
atom 7.04698 5.50573 4.18754 C
atom 5.80811 5.34122 4.72654 C
atom 4.80962 5.72503 4.55840 H
