lattice_vector 8.3930764235 0 0
lattice_vector 0.00734960289484 9.8471008045 0
lattice_vector 0.000702858060959 0.0394551748624 12.3191174427
atom 2.24148 9.57309 -0.14762 S
atom 1.76239 10.74122 2.35487 C
atom 1.47596 8.04212 2.11633 C
atom 0.75133 9.42258 2.96136 S
atom 2.15133 8.13658 0.87155 C
atom 2.34979 10.81978 1.11875 C
atom 3.07282 11.98493 0.76391 C
atom 1.88692 11.80272 3.28697 C
atom 3.62754 12.97533 0.48043 N
atom 1.93692 12.66951 4.06894 N
atom 2.60171 6.87780 0.49184 C
atom 3.28806 6.53355 -0.68592 C
atom 3.84747 6.25730 -1.67498 N
atom 1.37109 6.84714 2.66931 N
atom 2.08175 5.71153 1.68004 S
atom 6.43529 0.31272 12.46755 S
atom 5.94751 -0.85438 9.96628 C
atom 5.66575 1.84536 10.20601 C
atom 4.93653 0.46598 9.36321 S
atom 6.34473 1.74973 11.44876 C
atom 6.53812 -0.93409 11.20075 C
atom 7.25947 -2.10053 11.55448 C
atom 6.06782 -1.91545 9.03312 C
atom 7.81198 -3.09180 11.83917 N
atom 6.11490 -2.78174 8.25038 N
atom 6.79859 3.00759 11.82715 C
atom 7.48867 3.35041 13.00311 C
atom 8.05133 3.62438 13.99097 N
atom 5.56129 3.04049 9.65342 N
atom 6.27678 4.17481 10.64048 S
atom 2.23538 5.22432 6.00294 S
atom 1.75474 4.06551 8.50900 C
atom 1.47673 6.76416 8.26299 C
atom 0.74715 5.38846 9.11144 S
atom 2.15275 6.66388 7.01884 C
atom 2.34194 3.98127 7.27314 C
atom 3.06274 2.81416 6.92097 C
atom 1.87850 3.00831 9.44606 C
atom 3.61632 1.82364 6.63575 N
atom 1.93014 2.14679 10.23365 N
atom 2.61007 7.91965 6.63763 C
atom 3.30013 8.25892 5.46073 C
atom 3.86512 8.52953 4.47329 N
atom 1.37621 7.96071 8.81310 N
atom 2.09374 9.09063 7.82282 S
atom 6.42990 4.66167 6.31716 S
atom 5.95558 5.82110 3.80997 C
atom 5.67391 3.12259 4.05542 C
atom 4.94879 4.49913 3.20412 S
atom 6.34674 3.22222 5.30123 C
atom 6.54026 5.90453 5.04710 C
atom 7.26188 7.07080 5.40055 C
atom 6.08167 6.87914 2.87424 C
atom 7.81583 8.06120 5.68555 N
atom 6.13535 7.74086 2.08702 N
atom 6.80118 1.96591 5.68423 C
atom 7.48841 1.62658 6.86273 C
atom 8.05164 1.35517 7.85100 N
atom 5.57289 1.92602 3.50560 N
atom 6.28570 0.79513 4.49820 S
