lattice_vector 5.46139338482 0 0
lattice_vector -1.82114571449 7.77347029418 0
lattice_vector -0.359891542653 -0.112687265714 12.410210625
atom 0.71052 2.72152 9.59330 O
atom -0.50075 2.40919 10.19672 C
atom -1.06794 1.63148 9.69641 H
atom -0.62838 3.18689 11.30632 C
atom -1.23469 3.75263 12.58352 C
atom -1.37450 3.03543 13.40299 H
atom -2.16084 4.32523 12.44723 H
atom 0.06898 4.64593 12.70612 C
atom 0.69267 4.41818 13.58256 H
atom -0.09964 5.72936 12.67478 H
atom 0.53153 4.00575 11.40189 C
atom 1.33491 3.70875 10.34346 C
atom 2.30469 4.02018 9.97118 H
atom 1.64024 6.53141 3.24043 O
atom 2.88781 6.61216 2.63572 C
atom 3.66793 6.04337 3.13042 H
atom 2.76798 7.39983 1.53216 C
atom 3.16845 8.13644 0.26086 C
atom 3.52103 7.50581 -0.56566 H
atom 3.87356 8.96496 0.40401 H
atom 1.65268 8.58533 0.14467 C
atom 1.12819 8.18489 -0.73484 H
atom 1.47901 9.66751 0.18711 H
atom 1.41200 7.82167 1.44201 C
atom 0.74089 7.28372 2.49743 C
atom -0.27706 7.27867 2.87135 H
atom -0.50335 2.66789 3.38222 O
atom 0.75303 2.69760 3.97428 C
atom 1.52589 2.16218 3.43285 H
atom 0.65417 3.40744 5.13147 C
atom 1.07630 4.04772 6.44728 C
atom 1.42117 3.34836 7.21965 H
atom 1.79495 4.87270 6.36095 H
atom -0.43180 4.50705 6.61090 C
atom -0.95089 4.05883 7.46983 H
atom -0.59160 5.59218 6.63706 H
atom -0.69707 3.83274 5.26930 C
atom -1.38701 3.37281 4.18953 C
atom -2.40889 3.40741 3.82844 H
atom 2.83971 6.73095 9.45212 O
atom 1.63478 6.37456 8.85969 C
atom 1.06638 5.62280 9.39722 H
atom 1.50757 7.08757 7.70710 C
atom 0.90576 7.57598 6.39599 C
atom 0.79247 6.81103 5.61731 H
atom -0.03284 8.13709 6.48869 H
atom 2.19759 8.48041 6.23695 C
atom 2.82805 8.22212 5.37446 H
atom 2.01381 9.56190 6.22062 H
atom 2.66108 7.91026 7.57284 C
atom 3.46097 7.67947 8.64991 C
atom 4.42205 8.02707 9.01221 H
